POSCAR                                  
   1.00000000000000     
    19.1044006348000011    0.0000000000000000    0.0000000000000000
    -9.5522003174000005   16.5448962737999992    0.0000000000000000
     0.0000000000000000    0.0000000000000000   18.1270999908000014
   Mo   S 
    36    75
Direct
 -0.0000014186466270  0.0000033739404996  0.4999898400872203
  0.0000024691250202  0.1666674509087263  0.4999925367883957
 -0.0000007972532654  0.3333334562246081  0.4999931244903580
 -0.0000035542965399  0.5000042832353538  0.4999913881143732
 -0.0000076280135027  0.6666599679016949  0.4999901542901014
 -0.0000029649220877  0.8333375583347254  0.5000008108021525
  0.1666669179357040  0.0000058036297744  0.4999927501649505
  0.1666743583272803  0.1666738162541222  0.4999958246803220
  0.1666565148423970  0.3333515573655441  0.4999938150312928
  0.1665852575305024  0.4999809301200587  0.4999543709039356
  0.1666647065358870  0.6666560909440785  0.4999916543246683
  0.1666675245576385  0.8333344889143212  0.4999936296065012
  0.3333361511564963  0.0000045718399559  0.4999924481157181
  0.3333327921981480  0.1666723306949569  0.4999845107268373
  0.3332658373161475  0.3333217296993210  0.5000804279032401
  0.3335711556784971  0.5002570719550651  0.5001830431535573
  0.3333664196335324  0.6666094258235500  0.5000265361359260
  0.3333409837252627  0.8333339179934006  0.5000003072599117
  0.4999983649659918  0.0000005093220474  0.4999875602919852
  0.5000060623929133  0.1666771741166078  0.4999980525648862
  0.5000182826380305  0.3333529751113611  0.5001159168330966
  0.5003662326222318  0.5000061114012381  0.4997920699204770
  0.4997036214757394  0.6664538537344852  0.5002755220065619
  0.5000374126437346  0.8333967068839274  0.4999417813907481
  0.6666663234583808  0.0000237195945035  0.4999851306574654
  0.6666639858164339  0.1666669351323755  0.4999920226070709
  0.6666695475679075  0.3333343022650466  0.5000023209644026
  0.6669425059795594  0.5001744385367467  0.5000064553426165
  0.6666237751359875  0.6665202138741892  0.5000868253522137
  0.6667666795723649  0.8334353625750232  0.4996361246641652
  0.8333455217861485  0.0000147073118878  0.4999833537886756
  0.8333328986296245  0.1666670813366248  0.4999933149129157
  0.8333279906365841  0.3333300362561714  0.4999960865537625
  0.8333997457561543  0.4999653483147191  0.4999822552230452
  0.8332921189106433  0.6666558601010437  0.4999530848077469
  0.8333213849783828  0.8333490341508739  0.4999507992019999
  0.1111020082365688  0.0555526122581824  0.5859966406236589
  0.1111328506641912  0.2222631819061705  0.5859930980676403
  0.1111320771041213  0.3888740430324978  0.5859993460283857
  0.1111054651394530  0.5555547886468514  0.5860077318516486
  0.1111320739806303  0.7222628774255991  0.5859914647731824
  0.1111317623730002  0.8888672115822120  0.5859891220203198
  0.2777818997985230  0.0555630945359040  0.5860123030836468
  0.2777755436070277  0.2222120634822556  0.5860077794698942
  0.2777230813054825  0.3887625610509893  0.5860678681867761
  0.2777516853676107  0.5555355482410018  0.5860557638542355
  0.2777910083559371  0.7222211905016689  0.5860279725912756
  0.2777363223457318  0.8888659492757883  0.5859893204890351
  0.4444455067220502  0.0555528883797224  0.5859962630716304
  0.4444355638216523  0.2222130573850969  0.5860162219146726
  0.4443558828081762  0.3887643564866412  0.5858972118931143
  0.4437691567254317  0.5547900309929076  0.5842793060834283
  0.4444657994761094  0.7223147619153160  0.5860624697409049
  0.4444397266632323  0.8888860793508816  0.5860093481798968
  0.6111050484501822  0.0555509295989087  0.5859989124229718
  0.6111298316281611  0.2222608810840270  0.5859882972556071
  0.6110076877660711  0.3887018483165361  0.5860458537823162
  0.6108174631824749  0.5551949425670615  0.5845715914693045
  0.6120280867229165  0.7231811171260282  0.5849013757923139
  0.6111173810403686  0.8888777545753180  0.5860616256805796
  0.7777793836357002  0.0555600555014963  0.5860123245468628
  0.7777822406333404  0.2222184951570920  0.5860137441873530
  0.7777520212109846  0.3888797569757334  0.5859910136011721
  0.7778792895828675  0.5555629856025149  0.5860237167276602
  0.7777703061345180  0.7222544481683735  0.5860814626959984
  0.7777288600467832  0.8888621272358126  0.5860606996147412
  0.9444402460327361  0.0555505401319578  0.5859983533661373
  0.9444360267573901  0.2222188158130037  0.5860119915414580
  0.9444472563068560  0.3888974644068783  0.5859956617681820
  0.9444515669521202  0.5555586067158148  0.5860028345309399
  0.9444276388871485  0.7222223872731818  0.5860214207119232
  0.9444399940088171  0.8888874760313755  0.5860018073155162
  0.1111011998355476  0.0555525135477574  0.4140014605561813
  0.1111301995431076  0.2222641226624791  0.4140069648416234
  0.1111378451181321  0.3888733887806544  0.4140146267812876
  0.1111048295880903  0.5555527112988249  0.4140041977288280
  0.1111322068893706  0.7222633579422703  0.4140062558501950
  0.1111319726832678  0.8888678907806303  0.4140078324102698
  0.2777798649119036  0.0555617859839623  0.4139852514390486
  0.2777859033350665  0.2222230747332120  0.4139855787727930
  0.2777611925822277  0.3888716492870665  0.4139891591561728
  0.2777966814551563  0.5555620598483327  0.4139670938196818
  0.2777791614743584  0.7222172720376395  0.4139805111336186
  0.2777367882547653  0.8888678755005475  0.4140066345028718
  0.4444459529097115  0.0555526632059570  0.4140015043930050
  0.4444327725867299  0.2222212054704684  0.4139818397939165
  0.4444417648696791  0.3889302259966039  0.4139532685388168
  0.4444592837992280  0.5555490523124842  0.4139605609455863
  0.4444778135406584  0.7221989311660971  0.4139556350326832
  0.4444439396066818  0.8888968200136153  0.4140030221605633
  0.6111049665565046  0.0555513815976677  0.4140006684626146
  0.6111329624437700  0.2222621608584470  0.4140083768828515
  0.6111473416353778  0.3889194626111658  0.4139736983585386
  0.6110687898500909  0.5555503097270957  0.4139417718435601
  0.6111183375249847  0.7222391057485389  0.4139670591318766
  0.6111201364968731  0.8888490960098540  0.4140437615281000
  0.7777808521533709  0.0555615069713911  0.4139897627171332
  0.7777819556757239  0.2222182571597531  0.4139836815735030
  0.7777392490976256  0.3888800976941100  0.4140113672235043
  0.7777622173130728  0.5555738763468255  0.4139772204824421
  0.7777508764412479  0.7222159631416849  0.4139652643130226
  0.7777179720397006  0.8888508710184685  0.4140299586241982
  0.9444420696525041  0.0555508893418206  0.4140010099096241
  0.9444353836602541  0.2222180370024310  0.4139854104509220
  0.9444457465922803  0.3888951459320815  0.4140014193350326
  0.9444396673599161  0.5555524604582494  0.4140040597929562
  0.9444342550637126  0.7222205517391681  0.4139853441978943
  0.9444451570077069  0.8888943590440554  0.4140039916949584
  0.4316258922625476  0.5731701469323900  0.7265177816249194
  0.5470174482832125  0.6475648692266636  0.7287990562477611
  0.6128644260340850  0.5959357263401800  0.7227501691496441
 
  0.00000000E+00  0.00000000E+00  0.00000000E+00
  0.00000000E+00  0.00000000E+00  0.00000000E+00
  0.00000000E+00  0.00000000E+00  0.00000000E+00
  0.00000000E+00  0.00000000E+00  0.00000000E+00
  0.00000000E+00  0.00000000E+00  0.00000000E+00
  0.00000000E+00  0.00000000E+00  0.00000000E+00
  0.00000000E+00  0.00000000E+00  0.00000000E+00
  0.00000000E+00  0.00000000E+00  0.00000000E+00
  0.00000000E+00  0.00000000E+00  0.00000000E+00
  0.00000000E+00  0.00000000E+00  0.00000000E+00
  0.00000000E+00  0.00000000E+00  0.00000000E+00
  0.00000000E+00  0.00000000E+00  0.00000000E+00
  0.00000000E+00  0.00000000E+00  0.00000000E+00
  0.00000000E+00  0.00000000E+00  0.00000000E+00
  0.00000000E+00  0.00000000E+00  0.00000000E+00
  0.00000000E+00  0.00000000E+00  0.00000000E+00
  0.00000000E+00  0.00000000E+00  0.00000000E+00
  0.00000000E+00  0.00000000E+00  0.00000000E+00
  0.00000000E+00  0.00000000E+00  0.00000000E+00
  0.00000000E+00  0.00000000E+00  0.00000000E+00
  0.00000000E+00  0.00000000E+00  0.00000000E+00
  0.00000000E+00  0.00000000E+00  0.00000000E+00
  0.00000000E+00  0.00000000E+00  0.00000000E+00
  0.00000000E+00  0.00000000E+00  0.00000000E+00
  0.00000000E+00  0.00000000E+00  0.00000000E+00
  0.00000000E+00  0.00000000E+00  0.00000000E+00
  0.00000000E+00  0.00000000E+00  0.00000000E+00
  0.00000000E+00  0.00000000E+00  0.00000000E+00
  0.00000000E+00  0.00000000E+00  0.00000000E+00
  0.00000000E+00  0.00000000E+00  0.00000000E+00
  0.00000000E+00  0.00000000E+00  0.00000000E+00
  0.00000000E+00  0.00000000E+00  0.00000000E+00
  0.00000000E+00  0.00000000E+00  0.00000000E+00
  0.00000000E+00  0.00000000E+00  0.00000000E+00
  0.00000000E+00  0.00000000E+00  0.00000000E+00
  0.00000000E+00  0.00000000E+00  0.00000000E+00
  0.00000000E+00  0.00000000E+00  0.00000000E+00
  0.00000000E+00  0.00000000E+00  0.00000000E+00
  0.00000000E+00  0.00000000E+00  0.00000000E+00
  0.00000000E+00  0.00000000E+00  0.00000000E+00
  0.00000000E+00  0.00000000E+00  0.00000000E+00
  0.00000000E+00  0.00000000E+00  0.00000000E+00
  0.00000000E+00  0.00000000E+00  0.00000000E+00
  0.00000000E+00  0.00000000E+00  0.00000000E+00
  0.00000000E+00  0.00000000E+00  0.00000000E+00
  0.00000000E+00  0.00000000E+00  0.00000000E+00
  0.00000000E+00  0.00000000E+00  0.00000000E+00
  0.00000000E+00  0.00000000E+00  0.00000000E+00
  0.00000000E+00  0.00000000E+00  0.00000000E+00
  0.00000000E+00  0.00000000E+00  0.00000000E+00
  0.00000000E+00  0.00000000E+00  0.00000000E+00
  0.00000000E+00  0.00000000E+00  0.00000000E+00
  0.00000000E+00  0.00000000E+00  0.00000000E+00
  0.00000000E+00  0.00000000E+00  0.00000000E+00
  0.00000000E+00  0.00000000E+00  0.00000000E+00
  0.00000000E+00  0.00000000E+00  0.00000000E+00
  0.00000000E+00  0.00000000E+00  0.00000000E+00
  0.00000000E+00  0.00000000E+00  0.00000000E+00
  0.00000000E+00  0.00000000E+00  0.00000000E+00
  0.00000000E+00  0.00000000E+00  0.00000000E+00
  0.00000000E+00  0.00000000E+00  0.00000000E+00
  0.00000000E+00  0.00000000E+00  0.00000000E+00
  0.00000000E+00  0.00000000E+00  0.00000000E+00
  0.00000000E+00  0.00000000E+00  0.00000000E+00
  0.00000000E+00  0.00000000E+00  0.00000000E+00
  0.00000000E+00  0.00000000E+00  0.00000000E+00
  0.00000000E+00  0.00000000E+00  0.00000000E+00
  0.00000000E+00  0.00000000E+00  0.00000000E+00
  0.00000000E+00  0.00000000E+00  0.00000000E+00
  0.00000000E+00  0.00000000E+00  0.00000000E+00
  0.00000000E+00  0.00000000E+00  0.00000000E+00
  0.00000000E+00  0.00000000E+00  0.00000000E+00
  0.00000000E+00  0.00000000E+00  0.00000000E+00
  0.00000000E+00  0.00000000E+00  0.00000000E+00
  0.00000000E+00  0.00000000E+00  0.00000000E+00
  0.00000000E+00  0.00000000E+00  0.00000000E+00
  0.00000000E+00  0.00000000E+00  0.00000000E+00
  0.00000000E+00  0.00000000E+00  0.00000000E+00
  0.00000000E+00  0.00000000E+00  0.00000000E+00
  0.00000000E+00  0.00000000E+00  0.00000000E+00
  0.00000000E+00  0.00000000E+00  0.00000000E+00
  0.00000000E+00  0.00000000E+00  0.00000000E+00
  0.00000000E+00  0.00000000E+00  0.00000000E+00
  0.00000000E+00  0.00000000E+00  0.00000000E+00
  0.00000000E+00  0.00000000E+00  0.00000000E+00
  0.00000000E+00  0.00000000E+00  0.00000000E+00
  0.00000000E+00  0.00000000E+00  0.00000000E+00
  0.00000000E+00  0.00000000E+00  0.00000000E+00
  0.00000000E+00  0.00000000E+00  0.00000000E+00
  0.00000000E+00  0.00000000E+00  0.00000000E+00
  0.00000000E+00  0.00000000E+00  0.00000000E+00
  0.00000000E+00  0.00000000E+00  0.00000000E+00
  0.00000000E+00  0.00000000E+00  0.00000000E+00
  0.00000000E+00  0.00000000E+00  0.00000000E+00
  0.00000000E+00  0.00000000E+00  0.00000000E+00
  0.00000000E+00  0.00000000E+00  0.00000000E+00
  0.00000000E+00  0.00000000E+00  0.00000000E+00
  0.00000000E+00  0.00000000E+00  0.00000000E+00
  0.00000000E+00  0.00000000E+00  0.00000000E+00
  0.00000000E+00  0.00000000E+00  0.00000000E+00
  0.00000000E+00  0.00000000E+00  0.00000000E+00
  0.00000000E+00  0.00000000E+00  0.00000000E+00
  0.00000000E+00  0.00000000E+00  0.00000000E+00
  0.00000000E+00  0.00000000E+00  0.00000000E+00
  0.00000000E+00  0.00000000E+00  0.00000000E+00
  0.00000000E+00  0.00000000E+00  0.00000000E+00
  0.00000000E+00  0.00000000E+00  0.00000000E+00
  0.00000000E+00  0.00000000E+00  0.00000000E+00
  0.00000000E+00  0.00000000E+00  0.00000000E+00
  0.00000000E+00  0.00000000E+00  0.00000000E+00
  0.00000000E+00  0.00000000E+00  0.00000000E+00
