Autosave\of\661                         
   1.00000000000000     
    19.1044006348000011    0.0000000000000000    0.0000000000000000
    -9.5522003174000005   16.5448962737999992    0.0000000000000000
     0.0000000000000000    0.0000000000000000   18.1270999908000014
   Mo   S    Li
    36    80     2
Direct
  0.0024519494266876 -0.0008370011333221  0.4978855964789511
  0.0024948259778206  0.1658729957499805  0.4974355497501192
  0.0025729362409348  0.3325939477189534  0.4972063361364232
  0.0026154111262606  0.4992258547662146  0.4973948269059781
  0.0025057037449925  0.6658622740435012  0.4978227741019164
  0.0024647063508176  0.8325146253742691  0.4980621204406182
  0.1692211259031493 -0.0006974298996661  0.4978435342724832
  0.1690125214547122  0.1658047081338402  0.4974308437691742
  0.1690800041992014  0.3325245453461434  0.4966760170460165
  0.1693164447856352  0.4992289096009864  0.4972861419422014
  0.1692582622810977  0.6658673050121220  0.4976496305409580
  0.1692128099197973  0.8325713718779735  0.4979210773226293
  0.3359105223789867 -0.0006995432670671  0.4977331823708872
  0.3360747527452254  0.1661021758443490  0.4973362098449518
  0.3352161627395538  0.3324289456164177  0.4961639681609178
  0.3358078821369242  0.4991043449166714  0.4970037995128285
  0.3359608063894045  0.6658239560468172  0.4973509919776460
  0.3358974607014542  0.8325525846873226  0.4976793046406603
  0.5025489079601307 -0.0007739942263482  0.4974932621271734
  0.5026586870044855  0.1659616782410450  0.4972996481761514
  0.5029815709786566  0.3325055343620125  0.4967214102364230
  0.5020560937736593  0.4989475720410035  0.4968891997818794
  0.5027724006163048  0.6662271316032135  0.4966583133484220
  0.5025433121296040  0.8325892864574680  0.4973921187694230
  0.6692071421760990 -0.0007713647558039  0.4974972289295334
  0.6692409229376106  0.1658164946657379  0.4970211600433800
  0.6694720422675546  0.3324924205162092  0.4960857988720201
  0.6691435671583073  0.4987351596288897  0.4974449165226884
  0.6690387550960425  0.6659599354849122  0.4981353946640339
  0.6692480614578915  0.8325897038333332  0.4977893378764644
  0.8358558980045505 -0.0007735806617640  0.4977827104762247
  0.8359037815310850  0.1658915430445808  0.4973179060580428
  0.8359882450441652  0.3325668814203429  0.4969993672693749
  0.8358814311333707  0.4991773976525668  0.4973314745665777
  0.8356650637422967  0.6657518430370534  0.4980498645051686
  0.8357678046849668  0.8325009920132942  0.4981508480496430
  0.1136855009217713  0.0549761979761416  0.5836167320380469
  0.1137686193542943  0.2217968377924603  0.5830980644279014
  0.1137624761924893  0.3880088866482015  0.5830118299573873
  0.1137233390410887  0.5545937858748535  0.5833369056988656
  0.1136899822182941  0.7213189783687670  0.5837029592654873
  0.1137516825339450  0.8882141764931768  0.5838118510728366
  0.2806122723239092  0.0552125644120678  0.5835066630819437
  0.2804870380595287  0.2219214436099867  0.5830093444719936
  0.2799640687305004  0.3879820388588104  0.5825765234475387
  0.2805159123563901  0.5545747198049841  0.5832577862966560
  0.2804692453122983  0.7212699299249926  0.5834360524530999
  0.2804599539201731  0.8881874031536100  0.5836657829696809
  0.4472114993327894  0.0550249683712048  0.5833927546387269
  0.4474395442344513  0.2219644692530083  0.5832553551674522
  0.4459178288816409  0.3871230617420446  0.5817170477519110
  0.4472298854218182  0.5553550175377678  0.5819940760286484
  0.4471061259636624  0.7213344882662830  0.5830903272390582
  0.4470957744879986  0.8881285965429272  0.5834420333260626
  0.6137584028926654  0.0549956148809870  0.5832506791701638
  0.6140527678161255  0.2218154750371782  0.5827682833185388
  0.6142794260373556  0.3874269102405730  0.5820663805582627
  0.6127246297187323  0.5538935698677361  0.5837170974455733
  0.6131329553436219  0.7213915779908796  0.5835929786938659
  0.6135371392502795  0.8881998179591769  0.5834252944110354
  0.7802889602564047  0.0549791657947404  0.5834414644582719
  0.7803112281019744  0.2215538494187111  0.5829726866559999
  0.7800832057549099  0.3878097211981342  0.5827810874698236
  0.7801079593442163  0.5542155234638261  0.5836127049831715
  0.7800952764254716  0.7213087244985926  0.5840319304571596
  0.7802269518768264  0.8882466265132049  0.5838310078480599
  0.9470184668067808  0.0549818840008641  0.5835992923026593
  0.9470029308214415  0.2215953239651130  0.5832082142666212
  0.9469058669218267  0.3880035832353652  0.5831228041430097
  0.9468751275116651  0.5545013188323736  0.5833782278714096
  0.9468896800790476  0.7212517762644244  0.5838566044215834
  0.9469874219461759  0.8881679373007029  0.5839313920004841
  0.1133930139958553  0.0544620855453331  0.4118471019386669
  0.1133342626580471  0.2210403125654593  0.4112779033103520
  0.1135164926447845  0.3882731726215223  0.4111570109229341
  0.1137717232090561  0.5549510214397204  0.4115610984533026
  0.1136332674042089  0.7215440647358815  0.4119795058815348
  0.1135492223036132  0.8880519209405694  0.4121055532540315
  0.2802305465025337  0.0546760500500569  0.4118243615161238
  0.2798720620123319  0.2208419597300576  0.4111516912033128
  0.2800106742065032  0.3882704672877650  0.4105339517548622
  0.2803137872682981  0.5549088648588580  0.4113204033457236
  0.2803227500362186  0.7215163112211710  0.4117049385858102
  0.2802251476015697  0.8881250838294282  0.4119408410225685
  0.4468172552867991  0.0546292852914493  0.4116585892630014
  0.4470065774447458  0.2212190667423923  0.4112310084660612
  0.4469003782086991  0.3879745189690912  0.4107703252495165
  0.4470097916592751  0.5548208825468752  0.4108419045004342
  0.4469255203582186  0.7217198933109120  0.4112003182169507
  0.4468557186857039  0.8881136892279893  0.4116474763577945
  0.6135338784000430  0.0544924632068367  0.4114361564684867
  0.6134051621656894  0.2209198740688125  0.4108840063610697
  0.6139634392467485  0.3884170508320536  0.4105271285940585
  0.6138010383424019  0.5549318277201908  0.4119763283680760
  0.6143090658870607  0.7217507598630973  0.4116152570764747
  0.6138038911394850  0.8881016163009136  0.4116928350583645
  0.7803309619653307  0.0546036923440147  0.4116676837751234
  0.7804358462487950  0.2213251434785705  0.4112320450399553
  0.7809134899004196  0.3884343428081614  0.4108389150510446
  0.7803404155414949  0.5549995900250639  0.4117525219937747
  0.7801661895880507  0.7214135301030834  0.4123188296910372
  0.7804392988192914  0.8880749042168069  0.4120227607100175
  0.9468711103472570  0.0545241423031992  0.4118290141176059
  0.9469889194356698  0.2213738385583718  0.4114463096211715
  0.9472003602524502  0.3882723115559134  0.4113226764981498
  0.9471646942380918  0.5550369758493167  0.4116502367013385
  0.9468243088729730  0.7214605891279934  0.4121498075062835
  0.9468021530085863  0.8879187466168523  0.4121826710010759
  0.3410385680561759  0.4091395164180899  0.8151368412469762
  0.6379645032646494  0.4686021617134767  0.8941139552272812
  0.4603453689841847  0.4266416228724027  0.9659156057559969
  0.5323549234284384  0.3710125083972537  0.7408035195701641
  0.6330475587430171  0.4722515354713975  0.7794829836586185
  0.3824989429505697  0.4578381544506653  0.9191053365472921
  0.5785296667306287  0.5194362415480468  0.9443670858261389
  0.4083159348708609  0.4903942079876805  0.7325247154920145
  0.4072109326233461  0.3661679055624138  0.7265189496677313
  0.5409440630697280  0.5037109257977384  0.7193697548346083
 
  0.00000000E+00  0.00000000E+00  0.00000000E+00
  0.00000000E+00  0.00000000E+00  0.00000000E+00
  0.00000000E+00  0.00000000E+00  0.00000000E+00
  0.00000000E+00  0.00000000E+00  0.00000000E+00
  0.00000000E+00  0.00000000E+00  0.00000000E+00
  0.00000000E+00  0.00000000E+00  0.00000000E+00
  0.00000000E+00  0.00000000E+00  0.00000000E+00
  0.00000000E+00  0.00000000E+00  0.00000000E+00
  0.00000000E+00  0.00000000E+00  0.00000000E+00
  0.00000000E+00  0.00000000E+00  0.00000000E+00
  0.00000000E+00  0.00000000E+00  0.00000000E+00
  0.00000000E+00  0.00000000E+00  0.00000000E+00
  0.00000000E+00  0.00000000E+00  0.00000000E+00
  0.00000000E+00  0.00000000E+00  0.00000000E+00
  0.00000000E+00  0.00000000E+00  0.00000000E+00
  0.00000000E+00  0.00000000E+00  0.00000000E+00
  0.00000000E+00  0.00000000E+00  0.00000000E+00
  0.00000000E+00  0.00000000E+00  0.00000000E+00
  0.00000000E+00  0.00000000E+00  0.00000000E+00
  0.00000000E+00  0.00000000E+00  0.00000000E+00
  0.00000000E+00  0.00000000E+00  0.00000000E+00
  0.00000000E+00  0.00000000E+00  0.00000000E+00
  0.00000000E+00  0.00000000E+00  0.00000000E+00
  0.00000000E+00  0.00000000E+00  0.00000000E+00
  0.00000000E+00  0.00000000E+00  0.00000000E+00
  0.00000000E+00  0.00000000E+00  0.00000000E+00
  0.00000000E+00  0.00000000E+00  0.00000000E+00
  0.00000000E+00  0.00000000E+00  0.00000000E+00
  0.00000000E+00  0.00000000E+00  0.00000000E+00
  0.00000000E+00  0.00000000E+00  0.00000000E+00
  0.00000000E+00  0.00000000E+00  0.00000000E+00
  0.00000000E+00  0.00000000E+00  0.00000000E+00
  0.00000000E+00  0.00000000E+00  0.00000000E+00
  0.00000000E+00  0.00000000E+00  0.00000000E+00
  0.00000000E+00  0.00000000E+00  0.00000000E+00
  0.00000000E+00  0.00000000E+00  0.00000000E+00
  0.00000000E+00  0.00000000E+00  0.00000000E+00
  0.00000000E+00  0.00000000E+00  0.00000000E+00
  0.00000000E+00  0.00000000E+00  0.00000000E+00
  0.00000000E+00  0.00000000E+00  0.00000000E+00
  0.00000000E+00  0.00000000E+00  0.00000000E+00
  0.00000000E+00  0.00000000E+00  0.00000000E+00
  0.00000000E+00  0.00000000E+00  0.00000000E+00
  0.00000000E+00  0.00000000E+00  0.00000000E+00
  0.00000000E+00  0.00000000E+00  0.00000000E+00
  0.00000000E+00  0.00000000E+00  0.00000000E+00
  0.00000000E+00  0.00000000E+00  0.00000000E+00
  0.00000000E+00  0.00000000E+00  0.00000000E+00
  0.00000000E+00  0.00000000E+00  0.00000000E+00
  0.00000000E+00  0.00000000E+00  0.00000000E+00
  0.00000000E+00  0.00000000E+00  0.00000000E+00
  0.00000000E+00  0.00000000E+00  0.00000000E+00
  0.00000000E+00  0.00000000E+00  0.00000000E+00
  0.00000000E+00  0.00000000E+00  0.00000000E+00
  0.00000000E+00  0.00000000E+00  0.00000000E+00
  0.00000000E+00  0.00000000E+00  0.00000000E+00
  0.00000000E+00  0.00000000E+00  0.00000000E+00
  0.00000000E+00  0.00000000E+00  0.00000000E+00
  0.00000000E+00  0.00000000E+00  0.00000000E+00
  0.00000000E+00  0.00000000E+00  0.00000000E+00
  0.00000000E+00  0.00000000E+00  0.00000000E+00
  0.00000000E+00  0.00000000E+00  0.00000000E+00
  0.00000000E+00  0.00000000E+00  0.00000000E+00
  0.00000000E+00  0.00000000E+00  0.00000000E+00
  0.00000000E+00  0.00000000E+00  0.00000000E+00
  0.00000000E+00  0.00000000E+00  0.00000000E+00
  0.00000000E+00  0.00000000E+00  0.00000000E+00
  0.00000000E+00  0.00000000E+00  0.00000000E+00
  0.00000000E+00  0.00000000E+00  0.00000000E+00
  0.00000000E+00  0.00000000E+00  0.00000000E+00
  0.00000000E+00  0.00000000E+00  0.00000000E+00
  0.00000000E+00  0.00000000E+00  0.00000000E+00
  0.00000000E+00  0.00000000E+00  0.00000000E+00
  0.00000000E+00  0.00000000E+00  0.00000000E+00
  0.00000000E+00  0.00000000E+00  0.00000000E+00
  0.00000000E+00  0.00000000E+00  0.00000000E+00
  0.00000000E+00  0.00000000E+00  0.00000000E+00
  0.00000000E+00  0.00000000E+00  0.00000000E+00
  0.00000000E+00  0.00000000E+00  0.00000000E+00
  0.00000000E+00  0.00000000E+00  0.00000000E+00
  0.00000000E+00  0.00000000E+00  0.00000000E+00
  0.00000000E+00  0.00000000E+00  0.00000000E+00
  0.00000000E+00  0.00000000E+00  0.00000000E+00
  0.00000000E+00  0.00000000E+00  0.00000000E+00
  0.00000000E+00  0.00000000E+00  0.00000000E+00
  0.00000000E+00  0.00000000E+00  0.00000000E+00
  0.00000000E+00  0.00000000E+00  0.00000000E+00
  0.00000000E+00  0.00000000E+00  0.00000000E+00
  0.00000000E+00  0.00000000E+00  0.00000000E+00
  0.00000000E+00  0.00000000E+00  0.00000000E+00
  0.00000000E+00  0.00000000E+00  0.00000000E+00
  0.00000000E+00  0.00000000E+00  0.00000000E+00
  0.00000000E+00  0.00000000E+00  0.00000000E+00
  0.00000000E+00  0.00000000E+00  0.00000000E+00
  0.00000000E+00  0.00000000E+00  0.00000000E+00
  0.00000000E+00  0.00000000E+00  0.00000000E+00
  0.00000000E+00  0.00000000E+00  0.00000000E+00
  0.00000000E+00  0.00000000E+00  0.00000000E+00
  0.00000000E+00  0.00000000E+00  0.00000000E+00
  0.00000000E+00  0.00000000E+00  0.00000000E+00
  0.00000000E+00  0.00000000E+00  0.00000000E+00
  0.00000000E+00  0.00000000E+00  0.00000000E+00
  0.00000000E+00  0.00000000E+00  0.00000000E+00
  0.00000000E+00  0.00000000E+00  0.00000000E+00
  0.00000000E+00  0.00000000E+00  0.00000000E+00
  0.00000000E+00  0.00000000E+00  0.00000000E+00
  0.00000000E+00  0.00000000E+00  0.00000000E+00
  0.00000000E+00  0.00000000E+00  0.00000000E+00
  0.00000000E+00  0.00000000E+00  0.00000000E+00
  0.00000000E+00  0.00000000E+00  0.00000000E+00
  0.00000000E+00  0.00000000E+00  0.00000000E+00
  0.00000000E+00  0.00000000E+00  0.00000000E+00
  0.00000000E+00  0.00000000E+00  0.00000000E+00
  0.00000000E+00  0.00000000E+00  0.00000000E+00
  0.00000000E+00  0.00000000E+00  0.00000000E+00
  0.00000000E+00  0.00000000E+00  0.00000000E+00
  0.00000000E+00  0.00000000E+00  0.00000000E+00
  0.00000000E+00  0.00000000E+00  0.00000000E+00
