CONTCAR                                 
   1.00000000000000     
    19.1044006348000011    0.0000000000000000    0.0000000000000000
    -9.5522003174000005   16.5448962737999992    0.0000000000000000
     0.0000000000000000    0.0000000000000000   25.0000000000000000
   Li   S    Mo
     1    74    36
Direct
  0.4321098662577187  0.5530620304502060  0.5196286767218088
  0.1100918048932568  0.0539157085510558  0.4255354922689210
  0.1100929398539344  0.2205334198058969  0.4255107463819016
  0.1100352091219316  0.3871091224125602  0.4254770937689005
  0.1099643734622242  0.5537803159837037  0.4254881497629471
  0.1100227362227579  0.7204725208639563  0.4255166442630017
  0.1100568936815223  0.8871927258559259  0.4255563721255374
  0.2767852226253142  0.0539121077246996  0.4255643978403362
  0.2769115234144054  0.2207092864630468  0.4255183606215394
  0.2769751900011977  0.3874111008055245  0.4253974456952185
  0.2768495595668601  0.5537500803589372  0.4253211293009921
  0.2767536105736921  0.7204299141606102  0.4254480061573119
  0.2767565145003918  0.8872159837347775  0.4255794400044535
  0.4434318824378150  0.0539142180312348  0.4255624013206341
  0.4435259687368203  0.2206088479318297  0.4255776476900249
  0.4436777650615797  0.3872582760514321  0.4256529960757769
  0.4431283154370315  0.5539414775636998  0.4243323079707177
  0.4435507690615616  0.7204040181436620  0.4254510970145325
  0.4434337490600093  0.8872423326764477  0.4255651321075109
  0.6100820187677491  0.0538396620285558  0.4255270077747141
  0.6101118834320696  0.2205858040920809  0.4255150341729290
  0.6101984972560576  0.3873435324941953  0.4254539469416824
  0.6106494558475070  0.5537879402896967  0.4252659127225449
  0.6099721223463578  0.7203965145290492  0.4253965140469000
  0.6101925091236986  0.8871608566927471  0.4254654522898440
  0.7767119736723147  0.0537924107666972  0.4254750771328212
  0.7766815846540198  0.2204936377135135  0.4254925902950069
  0.7766731183218494  0.3872139787786439  0.4254456502076115
  0.7766406763763024  0.5537161903994471  0.4254023094944359
  0.7764203682639323  0.7202770478154835  0.4254745518554526
  0.7766001931672708  0.8870516489009725  0.4254418229583743
  0.9433271382120462  0.0537846034769979  0.4255008261858625
  0.9433680677659028  0.2204613755126259  0.4255248387154345
  0.9433240811420871  0.3871664077072476  0.4254921308187395
  0.9433042111518453  0.5538013678747505  0.4254607718175114
  0.9432884414163111  0.7204320776273135  0.4255103523349397
  0.9433011956081770  0.8871226103651156  0.4255170034438718
  0.1101073514794676  0.0538813608038830  0.3010063669863624
  0.1100322098650724  0.2204422206800066  0.3009726614852156
  0.1099947093844476  0.3871125353411324  0.3009779674633207
  0.1099863202499214  0.5538044014770439  0.3009442437245732
  0.1100876065945973  0.7205618590293997  0.3009901771812563
  0.1101140852505093  0.8872184739852969  0.3010485900549443
  0.2767729304579048  0.0538679803236699  0.3010359844808975
  0.2768390036126511  0.2205485687171834  0.3010058314578773
  0.2765418790142344  0.3867690288125263  0.3006792477551274
  0.2764147702379585  0.5539443733183563  0.3007258567401623
  0.2767008631807623  0.7206008530403971  0.3009803523888113
  0.2767691497885413  0.8872323715312569  0.3010384910780888
  0.4433921608033013  0.0538601986917314  0.3010096678818441
  0.4434355339628269  0.2204860311851899  0.3009894865201120
  0.4436000430416350  0.3871838276072729  0.3008518109204361
  0.4436730781166017  0.5537925250640943  0.3009277627248756
  0.4434033667450052  0.7208584027803345  0.3007681441369837
  0.4433956536553786  0.8872386471719116  0.3010370726717425
  0.6099903573110385  0.0538142596012102  0.3009615999237897
  0.6100221534754656  0.2204314484111291  0.3009458140137081
  0.6100160128844735  0.3870011332261447  0.3008071352430741
  0.6101252268117667  0.5537397313668214  0.3007040991416461
  0.6103095726500298  0.7206659395174763  0.3006117533105749
  0.6099948081449941  0.8872396608889813  0.3009161534301558
  0.7767086105398356  0.0538453098636887  0.3009591584846329
  0.7766637220657976  0.2204452680910960  0.3009661719403026
  0.7767134343892669  0.3871206549237467  0.3008894685818931
  0.7769452560901302  0.5539005202194083  0.3007879469211925
  0.7767237244396613  0.7204526809242410  0.3008993101543941
  0.7768317349870566  0.8872105299688203  0.3008871661369998
  0.9434268196950992  0.0538494303127205  0.3009687407061310
  0.9433899409236877  0.2204769907160599  0.3009895306147728
  0.9433432197199954  0.3871037993840824  0.3009677979867457
  0.9434520252583799  0.5538797753497914  0.3009080826271135
  0.9434094531620807  0.7205444849612377  0.3009833961825644
  0.9434031374583978  0.8871584966007767  0.3010068472592485
  0.4927750534728406  0.4840631091016844  0.5497183163445127
  0.5636188568491568  0.6040652113497595  0.5446612304138631
  0.9989564183061488  0.9982921815703802  0.3632583140982051
  0.9989452687748136  0.1649387787567155  0.3632566357208097
  0.9989016271629647  0.3315764931251804  0.3632566254548887
  0.9989067154674676  0.4982586499983514  0.3632095370935006
  0.9989374636443634  0.6649470549735519  0.3632306944172096
  0.9989433104876524  0.8316105106055743  0.3632784822953855
  0.1656576667124909  0.9983362501124100  0.3632987682482955
  0.1656899643772100  0.1650331310917154  0.3632601898564266
  0.1656513937069212  0.3315866000389879  0.3632007234394640
  0.1655090239525954  0.4982485232031304  0.3632272971473747
  0.1655771509524176  0.6649068196173165  0.3632329511851436
  0.1656533082884524  0.8316465696152181  0.3633011369016923
  0.3323160439956522  0.9983220090963140  0.3633093449236492
  0.3323990227699968  0.1650211863337460  0.3632888187992250
  0.3325714410270756  0.3318375627986602  0.3631860952698261
  0.3316767550894392  0.4979174416021850  0.3626186606554946
  0.3323703498844099  0.6649793742309419  0.3631196974291911
  0.3323035734413232  0.8316582550487098  0.3633013339244526
  0.4989474003217946  0.9983195968320567  0.3632898632732632
  0.4989907135139212  0.1649790072032500  0.3632696703890318
  0.4989942923035736  0.3316440487493894  0.3632044819436684
  0.4993925018445936  0.4979587194835648  0.3632797407417930
  0.4993572123582299  0.6656389789716278  0.3628038799411022
  0.4989676049254573  0.8316835822872947  0.3632893140311729
  0.6655913876380272  0.9982884467962304  0.3632147663840768
  0.6655719158350082  0.1649177634830914  0.3632348403173204
  0.6656080338492028  0.3315940453983069  0.3631568466814956
  0.6657622180473075  0.4982523596604739  0.3629083629906848
  0.6654511095305613  0.6647987823370977  0.3630629493415821
  0.6656119952870158  0.8315672282433064  0.3630390726797302
  0.8322600333512338  0.9982549881933636  0.3632001531890221
  0.8322610331090278  0.1649345123830104  0.3632396084635161
  0.8322283761092845  0.3315939554192187  0.3632140140614074
  0.8323023101830243  0.4982622576090590  0.3631302240400903
  0.8322152764194695  0.6648691292704793  0.3631897663723499
  0.8322048210663663  0.8315319568861991  0.3632123729277308
 
  0.00000000E+00  0.00000000E+00  0.00000000E+00
  0.00000000E+00  0.00000000E+00  0.00000000E+00
  0.00000000E+00  0.00000000E+00  0.00000000E+00
  0.00000000E+00  0.00000000E+00  0.00000000E+00
  0.00000000E+00  0.00000000E+00  0.00000000E+00
  0.00000000E+00  0.00000000E+00  0.00000000E+00
  0.00000000E+00  0.00000000E+00  0.00000000E+00
  0.00000000E+00  0.00000000E+00  0.00000000E+00
  0.00000000E+00  0.00000000E+00  0.00000000E+00
  0.00000000E+00  0.00000000E+00  0.00000000E+00
  0.00000000E+00  0.00000000E+00  0.00000000E+00
  0.00000000E+00  0.00000000E+00  0.00000000E+00
  0.00000000E+00  0.00000000E+00  0.00000000E+00
  0.00000000E+00  0.00000000E+00  0.00000000E+00
  0.00000000E+00  0.00000000E+00  0.00000000E+00
  0.00000000E+00  0.00000000E+00  0.00000000E+00
  0.00000000E+00  0.00000000E+00  0.00000000E+00
  0.00000000E+00  0.00000000E+00  0.00000000E+00
  0.00000000E+00  0.00000000E+00  0.00000000E+00
  0.00000000E+00  0.00000000E+00  0.00000000E+00
  0.00000000E+00  0.00000000E+00  0.00000000E+00
  0.00000000E+00  0.00000000E+00  0.00000000E+00
  0.00000000E+00  0.00000000E+00  0.00000000E+00
  0.00000000E+00  0.00000000E+00  0.00000000E+00
  0.00000000E+00  0.00000000E+00  0.00000000E+00
  0.00000000E+00  0.00000000E+00  0.00000000E+00
  0.00000000E+00  0.00000000E+00  0.00000000E+00
  0.00000000E+00  0.00000000E+00  0.00000000E+00
  0.00000000E+00  0.00000000E+00  0.00000000E+00
  0.00000000E+00  0.00000000E+00  0.00000000E+00
  0.00000000E+00  0.00000000E+00  0.00000000E+00
  0.00000000E+00  0.00000000E+00  0.00000000E+00
  0.00000000E+00  0.00000000E+00  0.00000000E+00
  0.00000000E+00  0.00000000E+00  0.00000000E+00
  0.00000000E+00  0.00000000E+00  0.00000000E+00
  0.00000000E+00  0.00000000E+00  0.00000000E+00
  0.00000000E+00  0.00000000E+00  0.00000000E+00
  0.00000000E+00  0.00000000E+00  0.00000000E+00
  0.00000000E+00  0.00000000E+00  0.00000000E+00
  0.00000000E+00  0.00000000E+00  0.00000000E+00
  0.00000000E+00  0.00000000E+00  0.00000000E+00
  0.00000000E+00  0.00000000E+00  0.00000000E+00
  0.00000000E+00  0.00000000E+00  0.00000000E+00
  0.00000000E+00  0.00000000E+00  0.00000000E+00
  0.00000000E+00  0.00000000E+00  0.00000000E+00
  0.00000000E+00  0.00000000E+00  0.00000000E+00
  0.00000000E+00  0.00000000E+00  0.00000000E+00
  0.00000000E+00  0.00000000E+00  0.00000000E+00
  0.00000000E+00  0.00000000E+00  0.00000000E+00
  0.00000000E+00  0.00000000E+00  0.00000000E+00
  0.00000000E+00  0.00000000E+00  0.00000000E+00
  0.00000000E+00  0.00000000E+00  0.00000000E+00
  0.00000000E+00  0.00000000E+00  0.00000000E+00
  0.00000000E+00  0.00000000E+00  0.00000000E+00
  0.00000000E+00  0.00000000E+00  0.00000000E+00
  0.00000000E+00  0.00000000E+00  0.00000000E+00
  0.00000000E+00  0.00000000E+00  0.00000000E+00
  0.00000000E+00  0.00000000E+00  0.00000000E+00
  0.00000000E+00  0.00000000E+00  0.00000000E+00
  0.00000000E+00  0.00000000E+00  0.00000000E+00
  0.00000000E+00  0.00000000E+00  0.00000000E+00
  0.00000000E+00  0.00000000E+00  0.00000000E+00
  0.00000000E+00  0.00000000E+00  0.00000000E+00
  0.00000000E+00  0.00000000E+00  0.00000000E+00
  0.00000000E+00  0.00000000E+00  0.00000000E+00
  0.00000000E+00  0.00000000E+00  0.00000000E+00
  0.00000000E+00  0.00000000E+00  0.00000000E+00
  0.00000000E+00  0.00000000E+00  0.00000000E+00
  0.00000000E+00  0.00000000E+00  0.00000000E+00
  0.00000000E+00  0.00000000E+00  0.00000000E+00
  0.00000000E+00  0.00000000E+00  0.00000000E+00
  0.00000000E+00  0.00000000E+00  0.00000000E+00
  0.00000000E+00  0.00000000E+00  0.00000000E+00
  0.00000000E+00  0.00000000E+00  0.00000000E+00
  0.00000000E+00  0.00000000E+00  0.00000000E+00
  0.00000000E+00  0.00000000E+00  0.00000000E+00
  0.00000000E+00  0.00000000E+00  0.00000000E+00
  0.00000000E+00  0.00000000E+00  0.00000000E+00
  0.00000000E+00  0.00000000E+00  0.00000000E+00
  0.00000000E+00  0.00000000E+00  0.00000000E+00
  0.00000000E+00  0.00000000E+00  0.00000000E+00
  0.00000000E+00  0.00000000E+00  0.00000000E+00
  0.00000000E+00  0.00000000E+00  0.00000000E+00
  0.00000000E+00  0.00000000E+00  0.00000000E+00
  0.00000000E+00  0.00000000E+00  0.00000000E+00
  0.00000000E+00  0.00000000E+00  0.00000000E+00
  0.00000000E+00  0.00000000E+00  0.00000000E+00
  0.00000000E+00  0.00000000E+00  0.00000000E+00
  0.00000000E+00  0.00000000E+00  0.00000000E+00
  0.00000000E+00  0.00000000E+00  0.00000000E+00
  0.00000000E+00  0.00000000E+00  0.00000000E+00
  0.00000000E+00  0.00000000E+00  0.00000000E+00
  0.00000000E+00  0.00000000E+00  0.00000000E+00
  0.00000000E+00  0.00000000E+00  0.00000000E+00
  0.00000000E+00  0.00000000E+00  0.00000000E+00
  0.00000000E+00  0.00000000E+00  0.00000000E+00
  0.00000000E+00  0.00000000E+00  0.00000000E+00
  0.00000000E+00  0.00000000E+00  0.00000000E+00
  0.00000000E+00  0.00000000E+00  0.00000000E+00
  0.00000000E+00  0.00000000E+00  0.00000000E+00
  0.00000000E+00  0.00000000E+00  0.00000000E+00
  0.00000000E+00  0.00000000E+00  0.00000000E+00
  0.00000000E+00  0.00000000E+00  0.00000000E+00
  0.00000000E+00  0.00000000E+00  0.00000000E+00
  0.00000000E+00  0.00000000E+00  0.00000000E+00
  0.00000000E+00  0.00000000E+00  0.00000000E+00
  0.00000000E+00  0.00000000E+00  0.00000000E+00
  0.00000000E+00  0.00000000E+00  0.00000000E+00
  0.00000000E+00  0.00000000E+00  0.00000000E+00
  0.00000000E+00  0.00000000E+00  0.00000000E+00
  0.00000000E+00  0.00000000E+00  0.00000000E+00
