661_S8                                  
   1.00000000000000     
    19.1044006348000011    0.0000000000000000    0.0000000000000000
    -9.5522003174000005   16.5448962737999992    0.0000000000000000
     0.0000000000000000    0.0000000000000000   18.1270999908000014
   Mo   S 
    36    77
Direct
  0.0027065549721664  0.9998507144496901  0.4991180607396895
  0.0026802189929569  0.1665031057117969  0.4990623936582843
  0.0026184085799789  0.3331050836659633  0.4988942125809312
  0.0026066228004508  0.4997875100506911  0.4988648370808533
  0.0026754259967188  0.6664769080474507  0.4988922841195003
  0.0027080671109727  0.8331672311849242  0.4989994214613820
  0.1693711689068350  0.9998540409519452  0.4991235173733868
  0.1693923220689592  0.1665625789074611  0.4991709174391817
  0.1693237022472040  0.3331921538428629  0.4989533264018935
  0.1691062421864963  0.4996915877411952  0.4986012740841579
  0.1693212707477925  0.6664205340688327  0.4988675875205186
  0.1693621110619022  0.8331414023502274  0.4989900234653432
  0.3360205256945086  0.9998370595901013  0.4990444907974770
  0.3360646655056972  0.1665749919754264  0.4991114877620408
  0.3360912745627871  0.3333006053736453  0.4989754361450643
  0.3358552663110170  0.4997773351898413  0.4988017264324173
  0.3360066873037882  0.6664905523876558  0.4986359821806056
  0.3360185562406842  0.8331249005625794  0.4988873096553239
  0.5026548022740431  0.9997962645993792  0.4989769519104981
  0.5026995698102630  0.1665246657495540  0.4990298283729278
  0.5027327594719385  0.3332514098305124  0.4989144834509206
  0.5027938391833376  0.4997889115192704  0.4986929508915949
  0.5026773094521089  0.6664744441929540  0.4986594633124781
  0.5027058837030238  0.8331491959608165  0.4986809528943073
  0.6693101413496199  0.9997814071451584  0.4989502625038318
  0.6693197979326201  0.1664659793395688  0.4990325443625820
  0.6693130584390667  0.3331422231939097  0.4988278756344348
  0.6694799996007635  0.4997393310039484  0.4983735403964144
  0.6693752864570369  0.6665357595599657  0.4985552646094594
  0.6693525888671844  0.8331917698749968  0.4986982281925261
  0.8360071921355102  0.9998080482068282  0.4989982495312025
  0.8359896607438900  0.1664677451490534  0.4990172371176820
  0.8359640372718898  0.3331354872402141  0.4989032805196814
  0.8360225924348308  0.4998317760055284  0.4987872212828048
  0.8360062189751226  0.6664928979591281  0.4988063858740086
  0.8360154929639932  0.8331598933632475  0.4989340383800598
  0.1138150478296582  0.0554224091256800  0.5850385731164851
  0.1138155816767222  0.2221796393062876  0.5849744031426503
  0.1137544168304122  0.3887667766265611  0.5847756540661437
  0.1137278134102288  0.5552650597793073  0.5847181681989475
  0.1137795889448183  0.7219534459398160  0.5848018737564793
  0.1138024202117568  0.8886505062016122  0.5849200352714956
  0.2805185761859556  0.0554167764332471  0.5849624410458337
  0.2805950305564215  0.2222642837757647  0.5850025377245375
  0.2804386812661775  0.3887406061671518  0.5848655046335552
  0.2800798929983647  0.5554037331014501  0.5842541422274985
  0.2804995890793247  0.7219404213374151  0.5847239684352322
  0.2804873480328039  0.8886405161646352  0.5848516815861328
  0.4471598666397134  0.0553954703503032  0.5848945355842697
  0.4472576877767017  0.2222221133250144  0.5849095334365272
  0.4472348771952177  0.3888466007465065  0.5849030221632147
  0.4471712608879664  0.5553088063043660  0.5840249690638537
  0.4471551150777783  0.7220368687510036  0.5845090676370339
  0.4471570264545630  0.8885689328849712  0.5847316849573798
  0.6137436748249779  0.0553132180529122  0.5848859720117129
  0.6138338030072977  0.2221585588760494  0.5848747691625046
  0.6139227974481638  0.3889066404463136  0.5846652207299270
  0.6142629344823218  0.5553676682436958  0.5839953208702942
  0.6137994888617359  0.7220881747291182  0.5844822045350857
  0.6137005219469958  0.8885470639189293  0.5846891997712382
  0.7803935034933813  0.0553098416400489  0.5848746862044679
  0.7804710554551254  0.2221000623221349  0.5848769389763012
  0.7804006163371036  0.3887435815102089  0.5847063852630906
  0.7803478685419453  0.5553103770764404  0.5845794997514236
  0.7802795824710651  0.7219216651535175  0.5847176223101009
  0.7803136266084066  0.8886039081702370  0.5847802076513765
  0.9470902740122721  0.0553914258325732  0.5849369643238764
  0.9471188372311089  0.2220845093255850  0.5848819199550961
  0.9470775161030800  0.3886792753673339  0.5847748468446990
  0.9470691874643401  0.5553600032613496  0.5847445957881233
  0.9470505325781061  0.7219530476410962  0.5847754234559679
  0.9470835596439459  0.8886363485210771  0.5849017211647101
  0.1138430512337180  0.0554519396485891  0.4132954960124811
  0.1138088627112685  0.2219963974842626  0.4131975039395819
  0.1136532421476453  0.3884961447471718  0.4129050494494654
  0.1136156445750801  0.5553436845414668  0.4128988850144472
  0.1138225223445062  0.7220878322174430  0.4130532704536611
  0.1138545428313823  0.8887831269965932  0.4131575792206513
  0.2804626184301659  0.0554500217085112  0.4132270708042010
  0.2804670267504925  0.2220850041354696  0.4132496797301030
  0.2803987225422914  0.3886556388692640  0.4130083921993184
  0.2803217708296649  0.5553005937221231  0.4127560250804007
  0.2804032651412590  0.7220843788634490  0.4129359429975706
  0.2804540626569939  0.8887709196462693  0.4130940320807130
  0.4471138546875782  0.0554212636190100  0.4131514925189579
  0.4470960406181045  0.2220264082178943  0.4131500545772671
  0.4470800475508541  0.3886452922291856  0.4129651818943262
  0.4470368211759389  0.5552774658957133  0.4127882811873338
  0.4471178790615082  0.7220206738013214  0.4127501892000132
  0.4471085119171744  0.8887830150993496  0.4129607276555577
  0.6137672784145202  0.0553871317287415  0.4131287537223788
  0.6137493559903162  0.2219401351114563  0.4130952388076847
  0.6136582662002489  0.3884788465939228  0.4127754097873717
  0.6138153754424782  0.5553741464806868  0.4125991454223801
  0.6137865412500229  0.7220974475619323  0.4127594346214785
  0.6138683553313071  0.8888316137649167  0.4128624117800228
  0.7804622055324935  0.0553842419714577  0.4131189851301491
  0.7804007563236823  0.2219684346493614  0.4131255505912753
  0.7804260379944519  0.3886552412257280  0.4129558474346253
  0.7806965128360241  0.5554918411989882  0.4127322881559881
  0.7806289425271948  0.7222037105172779  0.4129028238739481
  0.7805890736613268  0.8888009217604574  0.4129958528800893
  0.9471926979226317  0.0554052369463676  0.4131928274357248
  0.9470728655161627  0.2219438910370191  0.4130945911371467
  0.9470445671228777  0.3886348491259427  0.4130077768086197
  0.9471539576159236  0.5554016773276167  0.4129535058831282
  0.9472156790428419  0.7221472308015868  0.4130218533081966
  0.9472425823591055  0.8888272338102889  0.4131534889673508
  0.3821553986586363  0.5963198196498757  0.7445570579752693
  0.4997348394900309  0.6546223182763045  0.7908964062362973
  0.5130958876267431  0.4865061885070381  0.7728345775452995
  0.3222202913022132  0.4820338515703109  0.7663376676340865
  0.5581155207099492  0.5976803465837053  0.7413853078925726
 
  0.00000000E+00  0.00000000E+00  0.00000000E+00
  0.00000000E+00  0.00000000E+00  0.00000000E+00
  0.00000000E+00  0.00000000E+00  0.00000000E+00
  0.00000000E+00  0.00000000E+00  0.00000000E+00
  0.00000000E+00  0.00000000E+00  0.00000000E+00
  0.00000000E+00  0.00000000E+00  0.00000000E+00
  0.00000000E+00  0.00000000E+00  0.00000000E+00
  0.00000000E+00  0.00000000E+00  0.00000000E+00
  0.00000000E+00  0.00000000E+00  0.00000000E+00
  0.00000000E+00  0.00000000E+00  0.00000000E+00
  0.00000000E+00  0.00000000E+00  0.00000000E+00
  0.00000000E+00  0.00000000E+00  0.00000000E+00
  0.00000000E+00  0.00000000E+00  0.00000000E+00
  0.00000000E+00  0.00000000E+00  0.00000000E+00
  0.00000000E+00  0.00000000E+00  0.00000000E+00
  0.00000000E+00  0.00000000E+00  0.00000000E+00
  0.00000000E+00  0.00000000E+00  0.00000000E+00
  0.00000000E+00  0.00000000E+00  0.00000000E+00
  0.00000000E+00  0.00000000E+00  0.00000000E+00
  0.00000000E+00  0.00000000E+00  0.00000000E+00
  0.00000000E+00  0.00000000E+00  0.00000000E+00
  0.00000000E+00  0.00000000E+00  0.00000000E+00
  0.00000000E+00  0.00000000E+00  0.00000000E+00
  0.00000000E+00  0.00000000E+00  0.00000000E+00
  0.00000000E+00  0.00000000E+00  0.00000000E+00
  0.00000000E+00  0.00000000E+00  0.00000000E+00
  0.00000000E+00  0.00000000E+00  0.00000000E+00
  0.00000000E+00  0.00000000E+00  0.00000000E+00
  0.00000000E+00  0.00000000E+00  0.00000000E+00
  0.00000000E+00  0.00000000E+00  0.00000000E+00
  0.00000000E+00  0.00000000E+00  0.00000000E+00
  0.00000000E+00  0.00000000E+00  0.00000000E+00
  0.00000000E+00  0.00000000E+00  0.00000000E+00
  0.00000000E+00  0.00000000E+00  0.00000000E+00
  0.00000000E+00  0.00000000E+00  0.00000000E+00
  0.00000000E+00  0.00000000E+00  0.00000000E+00
  0.00000000E+00  0.00000000E+00  0.00000000E+00
  0.00000000E+00  0.00000000E+00  0.00000000E+00
  0.00000000E+00  0.00000000E+00  0.00000000E+00
  0.00000000E+00  0.00000000E+00  0.00000000E+00
  0.00000000E+00  0.00000000E+00  0.00000000E+00
  0.00000000E+00  0.00000000E+00  0.00000000E+00
  0.00000000E+00  0.00000000E+00  0.00000000E+00
  0.00000000E+00  0.00000000E+00  0.00000000E+00
  0.00000000E+00  0.00000000E+00  0.00000000E+00
  0.00000000E+00  0.00000000E+00  0.00000000E+00
  0.00000000E+00  0.00000000E+00  0.00000000E+00
  0.00000000E+00  0.00000000E+00  0.00000000E+00
  0.00000000E+00  0.00000000E+00  0.00000000E+00
  0.00000000E+00  0.00000000E+00  0.00000000E+00
  0.00000000E+00  0.00000000E+00  0.00000000E+00
  0.00000000E+00  0.00000000E+00  0.00000000E+00
  0.00000000E+00  0.00000000E+00  0.00000000E+00
  0.00000000E+00  0.00000000E+00  0.00000000E+00
  0.00000000E+00  0.00000000E+00  0.00000000E+00
  0.00000000E+00  0.00000000E+00  0.00000000E+00
  0.00000000E+00  0.00000000E+00  0.00000000E+00
  0.00000000E+00  0.00000000E+00  0.00000000E+00
  0.00000000E+00  0.00000000E+00  0.00000000E+00
  0.00000000E+00  0.00000000E+00  0.00000000E+00
  0.00000000E+00  0.00000000E+00  0.00000000E+00
  0.00000000E+00  0.00000000E+00  0.00000000E+00
  0.00000000E+00  0.00000000E+00  0.00000000E+00
  0.00000000E+00  0.00000000E+00  0.00000000E+00
  0.00000000E+00  0.00000000E+00  0.00000000E+00
  0.00000000E+00  0.00000000E+00  0.00000000E+00
  0.00000000E+00  0.00000000E+00  0.00000000E+00
  0.00000000E+00  0.00000000E+00  0.00000000E+00
  0.00000000E+00  0.00000000E+00  0.00000000E+00
  0.00000000E+00  0.00000000E+00  0.00000000E+00
  0.00000000E+00  0.00000000E+00  0.00000000E+00
  0.00000000E+00  0.00000000E+00  0.00000000E+00
  0.00000000E+00  0.00000000E+00  0.00000000E+00
  0.00000000E+00  0.00000000E+00  0.00000000E+00
  0.00000000E+00  0.00000000E+00  0.00000000E+00
  0.00000000E+00  0.00000000E+00  0.00000000E+00
  0.00000000E+00  0.00000000E+00  0.00000000E+00
  0.00000000E+00  0.00000000E+00  0.00000000E+00
  0.00000000E+00  0.00000000E+00  0.00000000E+00
  0.00000000E+00  0.00000000E+00  0.00000000E+00
  0.00000000E+00  0.00000000E+00  0.00000000E+00
  0.00000000E+00  0.00000000E+00  0.00000000E+00
  0.00000000E+00  0.00000000E+00  0.00000000E+00
  0.00000000E+00  0.00000000E+00  0.00000000E+00
  0.00000000E+00  0.00000000E+00  0.00000000E+00
  0.00000000E+00  0.00000000E+00  0.00000000E+00
  0.00000000E+00  0.00000000E+00  0.00000000E+00
  0.00000000E+00  0.00000000E+00  0.00000000E+00
  0.00000000E+00  0.00000000E+00  0.00000000E+00
  0.00000000E+00  0.00000000E+00  0.00000000E+00
  0.00000000E+00  0.00000000E+00  0.00000000E+00
  0.00000000E+00  0.00000000E+00  0.00000000E+00
  0.00000000E+00  0.00000000E+00  0.00000000E+00
  0.00000000E+00  0.00000000E+00  0.00000000E+00
  0.00000000E+00  0.00000000E+00  0.00000000E+00
  0.00000000E+00  0.00000000E+00  0.00000000E+00
  0.00000000E+00  0.00000000E+00  0.00000000E+00
  0.00000000E+00  0.00000000E+00  0.00000000E+00
  0.00000000E+00  0.00000000E+00  0.00000000E+00
  0.00000000E+00  0.00000000E+00  0.00000000E+00
  0.00000000E+00  0.00000000E+00  0.00000000E+00
  0.00000000E+00  0.00000000E+00  0.00000000E+00
  0.00000000E+00  0.00000000E+00  0.00000000E+00
  0.00000000E+00  0.00000000E+00  0.00000000E+00
  0.00000000E+00  0.00000000E+00  0.00000000E+00
  0.00000000E+00  0.00000000E+00  0.00000000E+00
  0.00000000E+00  0.00000000E+00  0.00000000E+00
  0.00000000E+00  0.00000000E+00  0.00000000E+00
  0.00000000E+00  0.00000000E+00  0.00000000E+00
  0.00000000E+00  0.00000000E+00  0.00000000E+00
  0.00000000E+00  0.00000000E+00  0.00000000E+00
  0.00000000E+00  0.00000000E+00  0.00000000E+00
  0.00000000E+00  0.00000000E+00  0.00000000E+00
