Li2S4                                   
   1.00000000000000     
    30.0000000000000000    0.0000000000000000    0.0000000000000000
     0.0000000000000000   30.0000000000000000    0.0000000000000000
     0.0000000000000000    0.0000000000000000   20.0000000000000000
   Li   S 
     2     3
Direct
  0.4341291109223150  0.4764919699194010  0.6154530518773222
  0.4519733199559738  0.4973656770758225  0.4700857839373410
  0.3861571098778509  0.4952947393408992  0.5298186816783719
  0.4314421423557248  0.5464646585724644  0.5587472771820675
  0.4934433168881348  0.5121119550914213  0.5648482053248994
 
  0.00000000E+00  0.00000000E+00  0.00000000E+00
  0.00000000E+00  0.00000000E+00  0.00000000E+00
  0.00000000E+00  0.00000000E+00  0.00000000E+00
  0.00000000E+00  0.00000000E+00  0.00000000E+00
  0.00000000E+00  0.00000000E+00  0.00000000E+00
