New structure                           
   1.00000000000000     
    30.0000000000000000    0.0000000000000000    0.0000000000000000
     0.0000000000000000   30.0000000000000000    0.0000000000000000
     0.0000000000000000    0.0000000000000000   20.0000000000000000
   Li   S 
     2     5
Direct
  0.5099698383596796  0.5392287280426946  0.4447530968813913
  0.4826577575430001  0.5282721239920714  0.5690159456595022
  0.4345671639039629  0.5257552744172932  0.4735251563103824
  0.5449946435071538  0.4710355275192883  0.4584713066883258
  0.4930611946635186  0.4270804704189834  0.4819340689949648
  0.5572504259533797  0.5156038035311239  0.5350016964583038
  0.4448349760693086  0.4672220720785542  0.5261307290071391
 
  0.00000000E+00  0.00000000E+00  0.00000000E+00
  0.00000000E+00  0.00000000E+00  0.00000000E+00
  0.00000000E+00  0.00000000E+00  0.00000000E+00
  0.00000000E+00  0.00000000E+00  0.00000000E+00
  0.00000000E+00  0.00000000E+00  0.00000000E+00
  0.00000000E+00  0.00000000E+00  0.00000000E+00
  0.00000000E+00  0.00000000E+00  0.00000000E+00
