Li2S4                                   
   1.00000000000000     
    30.0000000000000000    0.0000000000000000    0.0000000000000000
     0.0000000000000000   30.0000000000000000    0.0000000000000000
     0.0000000000000000    0.0000000000000000   20.0000000000000000
   Li   S 
     2     4
Direct
  0.4342448656824645  0.4795166386842926  0.6110797823836132
  0.4499725273795596  0.4988591874400500  0.4754592705178753
  0.3804985465586057  0.4876114872943536  0.5252001324853643
  0.4024808144974987  0.5535329429726927  0.5248229161311292
  0.4538663690989457  0.5559875132457339  0.5965706365913210
  0.5000068767829217  0.5082112303628860  0.5659962618906975
 
  0.00000000E+00  0.00000000E+00  0.00000000E+00
  0.00000000E+00  0.00000000E+00  0.00000000E+00
  0.00000000E+00  0.00000000E+00  0.00000000E+00
  0.00000000E+00  0.00000000E+00  0.00000000E+00
  0.00000000E+00  0.00000000E+00  0.00000000E+00
  0.00000000E+00  0.00000000E+00  0.00000000E+00
