Mo S  Li                                
   1.00000000000000     
    19.1044006348000011    0.0000000000000000    0.0000000000000000
    -9.5522003174000005   16.5448962737999992    0.0000000000000000
     0.0000000000000000    0.0000000000000000   18.1270999908000014
   Mo   S    Li
    36    79     1
Direct
  0.9978025356853099  0.0016001312110883  0.4970855273788228   
  0.9977864051469694  0.1682121430739297  0.4968072416247467   
  0.9977915948155749  0.3348793689185459  0.4967065681674738   
  0.9978083856550064  0.5015319515019552  0.4967935114955868   
  0.9977316169263504  0.6681859942607531  0.4970336886661554   
  0.9977342667676585  0.8348854372621851  0.4971944268744144   
  0.1644762125021035  0.0016331714529135  0.4972710898984456   
  0.1644723063854291  0.1682869611810886  0.4972119723089027   
  0.1644604773540009  0.3349200103261746  0.4967367974813486   
  0.1644382993073393  0.5014789295688092  0.4970058857530904   
  0.1644409378024028  0.6681631111188701  0.4971059805444395   
  0.1644415938111958  0.8349046271587179  0.4972027546126281   
  0.3311233027629653  0.0016075622216271  0.4971065728547055   
  0.3312417643315412  0.1684534138105848  0.4972093286369132   
  0.3308652945978484  0.3350409622547195  0.4973913807675876   
  0.3308179116364199  0.5010927894088212  0.4971939885667940   
  0.3311969990215879  0.6681133829860462  0.4971608116789550   
  0.3311155399627090  0.8348330674719764  0.4971034711284461   
  0.4977829556869487  0.0015443530010831  0.4968114439669699   
  0.4978111361648022  0.1682006651337415  0.4965950222806447   
  0.4980968480589416  0.3347732456908289  0.4961730990102235   
  0.4979066897855323  0.5015410166636385  0.4967769289712241   
  0.4980769603853261  0.6684442244921956  0.4970326082286626   
  0.4978087547097786  0.8348928077986791  0.4969698249557613   
  0.6644699819682361  0.0015391156784315  0.4967189281575684   
  0.6644704926001049  0.1681346378737389  0.4964169841751231   
  0.6646054922499968  0.3346754810118051  0.4958578685609681   
  0.6645827733371135  0.5011957927974959  0.4961945837680672   
  0.6644683809487590  0.6684459321674217  0.4970248396985498   
  0.6644802995221388  0.8349452260260329  0.4967532141103437   
  0.8311644183738927  0.0015822358051062  0.4968326940360295   
  0.8311446841660520  0.1682122911972422  0.4965824287416598   
  0.8311865296761698  0.3348407013388631  0.4964031136124632   
  0.8311580927485027  0.5014753301498857  0.4965016156051298   
  0.8309680637253206  0.6681306800352371  0.4969897921306174   
  0.8310810666027225  0.8348943334698117  0.4970823271825157   
  0.1088769718644314  0.0571856669783433  0.5830778309750704   
  0.1087894721101329  0.2238860762642107  0.5828500718380208   
  0.1087671742647213  0.3903109094214095  0.5827865203225812   
  0.1087852029624098  0.5569422414875780  0.5828555920666502   
  0.1088201153918138  0.7236929998404108  0.5829760591823668   
  0.1088593610355923  0.8904409298093200  0.5831133183817396   
  0.2757195364095350  0.0573118587156655  0.5830955560808605   
  0.2755339337781454  0.2238969467429481  0.5833300320372411   
  0.2751139743737087  0.3902120500839190  0.5831136169424517   
  0.2754186508247122  0.5569053264856426  0.5830555877263465   
  0.2755736470500896  0.7236789486381292  0.5830078063943963   
  0.2756376372384541  0.8904681124247892  0.5830088614086716   
  0.4424230644286158  0.0573024929913071  0.5827322135437175   
  0.4427141497372543  0.2240914106309391  0.5827011999049031   
  0.4424453832315379  0.3899230183440057  0.5825074130203163   
  0.4420164210357108  0.5571577372958310  0.5828549411511353   
  0.4424192926310706  0.7239099982080264  0.5829710858270221   
  0.4423501699012980  0.8905571951286771  0.5828362932232992   
  0.6090371697862758  0.0572403044337027  0.5825404605202261   
  0.6091156262113092  0.2239018001171026  0.5822063495824128   
  0.6092352953529712  0.3898972674939320  0.5814507013680488   
  0.6098489218866578  0.5571356813835542  0.5821614475661572   
  0.6090914679940630  0.7241389802125181  0.5828038009433353   
  0.6089906833061275  0.8905625849647105  0.5827318901713772   
  0.7755986460238949  0.0572278225732498  0.5825907632029199   
  0.7755262586358463  0.2237870016674133  0.5823383785960665   
  0.7754201526425170  0.3902084636771547  0.5821634211058704   
  0.7754140467387235  0.5566571629908393  0.5825413561486211   
  0.7754943441828601  0.7237674662311262  0.5830640374924720   
  0.7754870118954227  0.8905433231310292  0.5827990239675241   
  0.9421881102569888  0.0572172183816670  0.5828279994926701   
  0.9421677305303037  0.2237869068191175  0.5825693194640128   
  0.9420820163839012  0.3903109794999395  0.5825336706238118   
  0.9420147711974852  0.5568606832313272  0.5826766598186518   
  0.9420124659282755  0.7236008332001806  0.5829612468193195   
  0.9421724506567203  0.8904872021832821  0.5830015669041749   
  0.1090162424064758  0.0571759058321252  0.4113178091314792   
  0.1089862840783968  0.2236849779133658  0.4110433475197814   
  0.1089488589760531  0.3905367213794502  0.4109222285228546   
  0.1090721930652401  0.5571869514624683  0.4111037150073401   
  0.1089484690289092  0.7238565707779558  0.4112628028172865   
  0.1088998457906608  0.8905234019991163  0.4113786313082556   
  0.2755215452265058  0.0572351074035786  0.4113752716943896   
  0.2755645760237805  0.2239480419664287  0.4114571677853449   
  0.2755784749787638  0.3903720294864200  0.4110038193406322   
  0.2756363135405526  0.5570004787847557  0.4112627268396943   
  0.2755593819618362  0.7236543580740171  0.4112871863815459   
  0.2755008853616563  0.8904207857300857  0.4112867310042616   
  0.4419669488104917  0.0568866204103733  0.4109574639840512   
  0.4418942315251586  0.2234473484675820  0.4107608975489244   
  0.4419311235377390  0.3904248392988749  0.4110347830305143   
  0.4421250166890356  0.5570656067743376  0.4112997501759187   
  0.4422474899370752  0.7237143315905784  0.4111873776574128   
  0.4420883147661266  0.8902954741786178  0.4110851212537873   
  0.6087710697429016  0.0568538380646941  0.4107575286757854   
  0.6087135020363615  0.2233530505825684  0.4103537687136913   
  0.6089642437285151  0.3903172496572347  0.4099745903674851   
  0.6089162451562080  0.5572879397655474  0.4108506993032960   
  0.6089251246340166  0.7238045737122827  0.4109304458162034   
  0.6087789151371593  0.8903723696057999  0.4109047383909408   
  0.7755911896406175  0.0569976652046668  0.4108376023333608   
  0.7756241073895295  0.2236666739279473  0.4105534048562290   
  0.7759409977875755  0.3905343853169180  0.4103209954824300   
  0.7758508575894797  0.5573346849834643  0.4106742504501097   
  0.7755217327482611  0.7238532566353660  0.4111831486317312   
  0.7756801850572219  0.8904516191083001  0.4109935749509406   
  0.9423062223481450  0.0570544842945378  0.4110111322818423   
  0.9423549369936426  0.2237741687889005  0.4108140222113780   
  0.9424586988356085  0.3905508694293363  0.4107401092503971   
  0.9424750367733170  0.5573165038406865  0.4109012970405085   
  0.9422297350628269  0.7238692624379892  0.4112409163751346   
  0.9422590787363236  0.8904461482084335  0.4112585506274121   
  0.6236560839999967  0.6149539930000003  0.8329252850000017   
  0.4983769059999972  0.3782759779999978  0.8377141819999991   
  0.5860588629999981  0.4443629550000026  0.7505434280000003   
  0.3707169190000030  0.4210199549999984  0.7546191879999995   
  0.3944698660000014  0.3298154160000024  0.7789609379999973   
  0.6762487709999974  0.5476029800000006  0.7951195509999991   
  0.5597513439999986  0.6293692579999970  0.7496601719999987   
  0.4981505682583241  0.4971316893078727  0.6912090765578522   
 
  0.00000000E+00  0.00000000E+00  0.00000000E+00
  0.00000000E+00  0.00000000E+00  0.00000000E+00
  0.00000000E+00  0.00000000E+00  0.00000000E+00
  0.00000000E+00  0.00000000E+00  0.00000000E+00
  0.00000000E+00  0.00000000E+00  0.00000000E+00
  0.00000000E+00  0.00000000E+00  0.00000000E+00
  0.00000000E+00  0.00000000E+00  0.00000000E+00
  0.00000000E+00  0.00000000E+00  0.00000000E+00
  0.00000000E+00  0.00000000E+00  0.00000000E+00
  0.00000000E+00  0.00000000E+00  0.00000000E+00
  0.00000000E+00  0.00000000E+00  0.00000000E+00
  0.00000000E+00  0.00000000E+00  0.00000000E+00
  0.00000000E+00  0.00000000E+00  0.00000000E+00
  0.00000000E+00  0.00000000E+00  0.00000000E+00
  0.00000000E+00  0.00000000E+00  0.00000000E+00
  0.00000000E+00  0.00000000E+00  0.00000000E+00
  0.00000000E+00  0.00000000E+00  0.00000000E+00
  0.00000000E+00  0.00000000E+00  0.00000000E+00
  0.00000000E+00  0.00000000E+00  0.00000000E+00
  0.00000000E+00  0.00000000E+00  0.00000000E+00
  0.00000000E+00  0.00000000E+00  0.00000000E+00
  0.00000000E+00  0.00000000E+00  0.00000000E+00
  0.00000000E+00  0.00000000E+00  0.00000000E+00
  0.00000000E+00  0.00000000E+00  0.00000000E+00
  0.00000000E+00  0.00000000E+00  0.00000000E+00
  0.00000000E+00  0.00000000E+00  0.00000000E+00
  0.00000000E+00  0.00000000E+00  0.00000000E+00
  0.00000000E+00  0.00000000E+00  0.00000000E+00
  0.00000000E+00  0.00000000E+00  0.00000000E+00
  0.00000000E+00  0.00000000E+00  0.00000000E+00
  0.00000000E+00  0.00000000E+00  0.00000000E+00
  0.00000000E+00  0.00000000E+00  0.00000000E+00
  0.00000000E+00  0.00000000E+00  0.00000000E+00
  0.00000000E+00  0.00000000E+00  0.00000000E+00
  0.00000000E+00  0.00000000E+00  0.00000000E+00
  0.00000000E+00  0.00000000E+00  0.00000000E+00
  0.00000000E+00  0.00000000E+00  0.00000000E+00
  0.00000000E+00  0.00000000E+00  0.00000000E+00
  0.00000000E+00  0.00000000E+00  0.00000000E+00
  0.00000000E+00  0.00000000E+00  0.00000000E+00
  0.00000000E+00  0.00000000E+00  0.00000000E+00
  0.00000000E+00  0.00000000E+00  0.00000000E+00
  0.00000000E+00  0.00000000E+00  0.00000000E+00
  0.00000000E+00  0.00000000E+00  0.00000000E+00
  0.00000000E+00  0.00000000E+00  0.00000000E+00
  0.00000000E+00  0.00000000E+00  0.00000000E+00
  0.00000000E+00  0.00000000E+00  0.00000000E+00
  0.00000000E+00  0.00000000E+00  0.00000000E+00
  0.00000000E+00  0.00000000E+00  0.00000000E+00
  0.00000000E+00  0.00000000E+00  0.00000000E+00
  0.00000000E+00  0.00000000E+00  0.00000000E+00
  0.00000000E+00  0.00000000E+00  0.00000000E+00
  0.00000000E+00  0.00000000E+00  0.00000000E+00
  0.00000000E+00  0.00000000E+00  0.00000000E+00
  0.00000000E+00  0.00000000E+00  0.00000000E+00
  0.00000000E+00  0.00000000E+00  0.00000000E+00
  0.00000000E+00  0.00000000E+00  0.00000000E+00
  0.00000000E+00  0.00000000E+00  0.00000000E+00
  0.00000000E+00  0.00000000E+00  0.00000000E+00
  0.00000000E+00  0.00000000E+00  0.00000000E+00
  0.00000000E+00  0.00000000E+00  0.00000000E+00
  0.00000000E+00  0.00000000E+00  0.00000000E+00
  0.00000000E+00  0.00000000E+00  0.00000000E+00
  0.00000000E+00  0.00000000E+00  0.00000000E+00
  0.00000000E+00  0.00000000E+00  0.00000000E+00
  0.00000000E+00  0.00000000E+00  0.00000000E+00
  0.00000000E+00  0.00000000E+00  0.00000000E+00
  0.00000000E+00  0.00000000E+00  0.00000000E+00
  0.00000000E+00  0.00000000E+00  0.00000000E+00
  0.00000000E+00  0.00000000E+00  0.00000000E+00
  0.00000000E+00  0.00000000E+00  0.00000000E+00
  0.00000000E+00  0.00000000E+00  0.00000000E+00
  0.00000000E+00  0.00000000E+00  0.00000000E+00
  0.00000000E+00  0.00000000E+00  0.00000000E+00
  0.00000000E+00  0.00000000E+00  0.00000000E+00
  0.00000000E+00  0.00000000E+00  0.00000000E+00
  0.00000000E+00  0.00000000E+00  0.00000000E+00
  0.00000000E+00  0.00000000E+00  0.00000000E+00
  0.00000000E+00  0.00000000E+00  0.00000000E+00
  0.00000000E+00  0.00000000E+00  0.00000000E+00
  0.00000000E+00  0.00000000E+00  0.00000000E+00
  0.00000000E+00  0.00000000E+00  0.00000000E+00
  0.00000000E+00  0.00000000E+00  0.00000000E+00
  0.00000000E+00  0.00000000E+00  0.00000000E+00
  0.00000000E+00  0.00000000E+00  0.00000000E+00
  0.00000000E+00  0.00000000E+00  0.00000000E+00
  0.00000000E+00  0.00000000E+00  0.00000000E+00
  0.00000000E+00  0.00000000E+00  0.00000000E+00
  0.00000000E+00  0.00000000E+00  0.00000000E+00
  0.00000000E+00  0.00000000E+00  0.00000000E+00
  0.00000000E+00  0.00000000E+00  0.00000000E+00
  0.00000000E+00  0.00000000E+00  0.00000000E+00
  0.00000000E+00  0.00000000E+00  0.00000000E+00
  0.00000000E+00  0.00000000E+00  0.00000000E+00
  0.00000000E+00  0.00000000E+00  0.00000000E+00
  0.00000000E+00  0.00000000E+00  0.00000000E+00
  0.00000000E+00  0.00000000E+00  0.00000000E+00
  0.00000000E+00  0.00000000E+00  0.00000000E+00
  0.00000000E+00  0.00000000E+00  0.00000000E+00
  0.00000000E+00  0.00000000E+00  0.00000000E+00
  0.00000000E+00  0.00000000E+00  0.00000000E+00
  0.00000000E+00  0.00000000E+00  0.00000000E+00
  0.00000000E+00  0.00000000E+00  0.00000000E+00
  0.00000000E+00  0.00000000E+00  0.00000000E+00
  0.00000000E+00  0.00000000E+00  0.00000000E+00
  0.00000000E+00  0.00000000E+00  0.00000000E+00
  0.00000000E+00  0.00000000E+00  0.00000000E+00
  0.00000000E+00  0.00000000E+00  0.00000000E+00
  0.00000000E+00  0.00000000E+00  0.00000000E+00
  0.00000000E+00  0.00000000E+00  0.00000000E+00
  0.00000000E+00  0.00000000E+00  0.00000000E+00
  0.00000000E+00  0.00000000E+00  0.00000000E+00
  0.00000000E+00  0.00000000E+00  0.00000000E+00
  0.00000000E+00  0.00000000E+00  0.00000000E+00
  0.00000000E+00  0.00000000E+00  0.00000000E+00
  0.00000000E+00  0.00000000E+00  0.00000000E+00
