661_S8                                  
   1.00000000000000     
    19.1044006348000011    0.0000000000000000    0.0000000000000000
    -9.5522003174000005   16.5448962737999992    0.0000000000000000
     0.0000000000000000    0.0000000000000000   18.1270999908000014
   Mo   S 
    36    73
Direct
 -0.0001463337806525  0.0002428299506681  0.5005069203179205
 -0.0001910596345312  0.1668901665564755  0.5001995212616726
 -0.0001633276069909  0.3335701939795985  0.5000741880359899
 -0.0001319657714149  0.5002489209009979  0.5002292914668279
 -0.0000662017427481  0.6669666044630775  0.5003843172904778
 -0.0001359672545305  0.8335915144980683  0.5005360458948885
  0.1665099418852265  0.0002307587859954  0.5005569368087052
  0.1664648983298521  0.1668473019748598  0.5004706966978921
  0.1664993941299583  0.3333020557940556  0.5000750863723408
  0.1665271223921541  0.5004182809957296  0.4999520680074126
  0.1665118173664723  0.6668747998111776  0.5001377765762787
  0.1665378657226133  0.8335652789900232  0.5003686879801762
  0.3331430026267081  0.0001615621062607  0.5003809506266728
  0.3332240748032119  0.1667958834987730  0.5005123914321682
  0.3333033361368649  0.3336844815733008  0.5002151354182622
  0.3311643356357804  0.4991335491766614  0.4991000465641570
  0.3333182220881277  0.6667523534217220  0.4998337492426472
  0.3332219694422048  0.8335781953235145  0.5001079305523303
  0.4998520897497950  0.0002209233066079  0.5001893093813541
  0.4999022344198507  0.1668175079248806  0.5004111794896312
  0.4996957949046801  0.3332723928965380  0.5003411552547916
  0.5009350658375653  0.4991425598128255  0.4992275473475432
  0.5009353906265100  0.6689121558980401  0.4990470754398905
  0.4996627777426987  0.8335525700128578  0.4998720090065607
  0.6665145875111146  0.0002265246400671  0.5000083818098359
  0.6665368001622410  0.1668564821764784  0.5002592455075092
  0.6665888225836366  0.3335029431115856  0.5004187427175143
  0.6668110330655275  0.5003893390520695  0.5003452290913927
  0.6663875130235849  0.6667778426155785  0.5001557124449113
  0.6667722105209121  0.8335707663627937  0.4999842462511239
  0.8332003796004931  0.0002757559017973  0.5001595113375951
  0.8331884843259292  0.1668887335023115  0.5001054703708423
  0.8332239637496676  0.3335573880615404  0.5002912955688651
  0.8332752301713664  0.5002052679060427  0.5004368183711669
  0.8332788337410733  0.6668663157107584  0.5004805509043001
  0.8332441898534179  0.8336312845844362  0.5004105765684439
  0.1109564453797356  0.0558239408799429  0.5864397063882535
  0.1108110066773774  0.2224333521808013  0.5861771571547463
  0.1109750262113877  0.3891485192138309  0.5858573822321695
  0.1110308444590198  0.5558160037602532  0.5860251897408182
  0.1111141061559194  0.7224400051411447  0.5861743532764715
  0.1110031196262749  0.8890726653231711  0.5863913627790222
  0.2776555842168445  0.0556861054393572  0.5863733728690829
  0.2777490762857979  0.2226391613085823  0.5862746070582966
  0.2775145244069943  0.3893395718989836  0.5859255438685688
  0.2775890911366010  0.5555025614551210  0.5857333131119159
  0.2778325779717580  0.7222821239537724  0.5858514175633015
  0.2776854056663635  0.8889808387627719  0.5861656314092322
  0.4442965784451063  0.0556490666100187  0.5862162224523467
  0.4443592706835044  0.2223039691708963  0.5863439581959338
  0.4446537557281411  0.3893622288287509  0.5860576390400229
  0.4443470900101453  0.5557833609814457  0.5828684303432480
  0.4445997322548527  0.7225142894467635  0.5856827374071404
  0.4442923131066261  0.8890563887905581  0.5859766158995870
  0.6109681063410474  0.0556711680688109  0.5860361484445545
  0.6110411078891053  0.2223529475367151  0.5862612375202902
  0.6110240786822343  0.3890510288913497  0.5862504479091212
  0.6107251943838740  0.5554579580833813  0.5860390597815854
  0.6107440048951858  0.7225757616401918  0.5858507264322026
  0.6109247806585930  0.8890730717554562  0.5857711268752254
  0.7775482460627123  0.0557596983556687  0.5859325223564015
  0.7776891304084192  0.2223727606747311  0.5860972199405785
  0.7777236805102644  0.3890604581185347  0.5862882823265340
  0.7777870316312664  0.5557623474618603  0.5863539320121269
  0.7774215627531026  0.7223553533388042  0.5862108012478240
  0.7776141341965706  0.8892436929959191  0.5861050326774463
  0.9441748259216950  0.0558758173086815  0.5861741217597274
  0.9442784210420917  0.2225091520477515  0.5859749963330558
  0.9444038695523662  0.3891357724505850  0.5860852045719200
  0.9444493036392332  0.5558284820575710  0.5862423169722113
  0.9443747575797365  0.7224491237489794  0.5863461424998581
  0.9442487945073074  0.8891212070556036  0.5864172676570174
  0.1109583262679309  0.0557432552510341  0.4146540917105879
  0.1108825155802041  0.2221675859936020  0.4143434681313700
  0.1109550527270068  0.3890459248404644  0.4142301882699221
  0.1107764340502430  0.5558307253465248  0.4141933142882314
  0.1109416999817233  0.7225500016021528  0.4143955326652485
  0.1109327513066276  0.8891820750095729  0.4146401573724845
  0.2775394368162273  0.0557320235851830  0.4146012908076708
  0.2776073300889170  0.2222619478555472  0.4146567001834294
  0.2770329026738568  0.3879915499659114  0.4136084966880190
  0.2770157651707694  0.5559979094974182  0.4134296697999445
  0.2775934262512433  0.7224656297393567  0.4142299089893098
  0.2775373112455409  0.8891577567857947  0.4143831067987004
  0.4442134638209370  0.0557994192207817  0.4144690474700629
  0.4442513542731154  0.2221794052594082  0.4145426618921161
  0.4440036525019018  0.3879968818135379  0.4137564518276914
  0.4443750187133804  0.5556421435549815  0.4151252118118305
  0.4440345921506865  0.7230264010346972  0.4133826187916572
  0.4442422074967520  0.8893181288222300  0.4141400783402912
  0.6109310018666023  0.0558592352197277  0.4142573683769376
  0.6109866545378676  0.2224616289666662  0.4144835132317616
  0.6110373796643221  0.3890535808938853  0.4146153065406812
  0.6120610658150283  0.5560448628562606  0.4137360352114349
  0.6120620595673784  0.7230197250742517  0.4135393473583500
  0.6110386372008770  0.8891151961605370  0.4141254993998861
  0.7776693346114212  0.0558027229736741  0.4141822432886032
  0.7776151900841632  0.2224867648790239  0.4143512570818010
  0.7776480293429094  0.3891272040972077  0.4145147708855599
  0.7779011307965962  0.5558152242465729  0.4145457720697947
  0.7778213973156447  0.7224670919861677  0.4146078642901241
  0.7779516578436994  0.8892387609065872  0.4142783743725669
  0.9443995378034169  0.0557419486751005  0.4144088647265738
  0.9442995119010068  0.2224398296418411  0.4142166513142460
  0.9442259124897423  0.3891644089560193  0.4143228991579224
  0.9442869837691021  0.5558716727089505  0.4144931775700073
  0.9443539352564706  0.7225537961694078  0.4145825659238689
  0.9443891062103348  0.8891695074980620  0.4146334214545231
  0.4444251273706481  0.5558366328970131  0.6893160463887485
 
  0.00000000E+00  0.00000000E+00  0.00000000E+00
  0.00000000E+00  0.00000000E+00  0.00000000E+00
  0.00000000E+00  0.00000000E+00  0.00000000E+00
  0.00000000E+00  0.00000000E+00  0.00000000E+00
  0.00000000E+00  0.00000000E+00  0.00000000E+00
  0.00000000E+00  0.00000000E+00  0.00000000E+00
  0.00000000E+00  0.00000000E+00  0.00000000E+00
  0.00000000E+00  0.00000000E+00  0.00000000E+00
  0.00000000E+00  0.00000000E+00  0.00000000E+00
  0.00000000E+00  0.00000000E+00  0.00000000E+00
  0.00000000E+00  0.00000000E+00  0.00000000E+00
  0.00000000E+00  0.00000000E+00  0.00000000E+00
  0.00000000E+00  0.00000000E+00  0.00000000E+00
  0.00000000E+00  0.00000000E+00  0.00000000E+00
  0.00000000E+00  0.00000000E+00  0.00000000E+00
  0.00000000E+00  0.00000000E+00  0.00000000E+00
  0.00000000E+00  0.00000000E+00  0.00000000E+00
  0.00000000E+00  0.00000000E+00  0.00000000E+00
  0.00000000E+00  0.00000000E+00  0.00000000E+00
  0.00000000E+00  0.00000000E+00  0.00000000E+00
  0.00000000E+00  0.00000000E+00  0.00000000E+00
  0.00000000E+00  0.00000000E+00  0.00000000E+00
  0.00000000E+00  0.00000000E+00  0.00000000E+00
  0.00000000E+00  0.00000000E+00  0.00000000E+00
  0.00000000E+00  0.00000000E+00  0.00000000E+00
  0.00000000E+00  0.00000000E+00  0.00000000E+00
  0.00000000E+00  0.00000000E+00  0.00000000E+00
  0.00000000E+00  0.00000000E+00  0.00000000E+00
  0.00000000E+00  0.00000000E+00  0.00000000E+00
  0.00000000E+00  0.00000000E+00  0.00000000E+00
  0.00000000E+00  0.00000000E+00  0.00000000E+00
  0.00000000E+00  0.00000000E+00  0.00000000E+00
  0.00000000E+00  0.00000000E+00  0.00000000E+00
  0.00000000E+00  0.00000000E+00  0.00000000E+00
  0.00000000E+00  0.00000000E+00  0.00000000E+00
  0.00000000E+00  0.00000000E+00  0.00000000E+00
  0.00000000E+00  0.00000000E+00  0.00000000E+00
  0.00000000E+00  0.00000000E+00  0.00000000E+00
  0.00000000E+00  0.00000000E+00  0.00000000E+00
  0.00000000E+00  0.00000000E+00  0.00000000E+00
  0.00000000E+00  0.00000000E+00  0.00000000E+00
  0.00000000E+00  0.00000000E+00  0.00000000E+00
  0.00000000E+00  0.00000000E+00  0.00000000E+00
  0.00000000E+00  0.00000000E+00  0.00000000E+00
  0.00000000E+00  0.00000000E+00  0.00000000E+00
  0.00000000E+00  0.00000000E+00  0.00000000E+00
  0.00000000E+00  0.00000000E+00  0.00000000E+00
  0.00000000E+00  0.00000000E+00  0.00000000E+00
  0.00000000E+00  0.00000000E+00  0.00000000E+00
  0.00000000E+00  0.00000000E+00  0.00000000E+00
  0.00000000E+00  0.00000000E+00  0.00000000E+00
  0.00000000E+00  0.00000000E+00  0.00000000E+00
  0.00000000E+00  0.00000000E+00  0.00000000E+00
  0.00000000E+00  0.00000000E+00  0.00000000E+00
  0.00000000E+00  0.00000000E+00  0.00000000E+00
  0.00000000E+00  0.00000000E+00  0.00000000E+00
  0.00000000E+00  0.00000000E+00  0.00000000E+00
  0.00000000E+00  0.00000000E+00  0.00000000E+00
  0.00000000E+00  0.00000000E+00  0.00000000E+00
  0.00000000E+00  0.00000000E+00  0.00000000E+00
  0.00000000E+00  0.00000000E+00  0.00000000E+00
  0.00000000E+00  0.00000000E+00  0.00000000E+00
  0.00000000E+00  0.00000000E+00  0.00000000E+00
  0.00000000E+00  0.00000000E+00  0.00000000E+00
  0.00000000E+00  0.00000000E+00  0.00000000E+00
  0.00000000E+00  0.00000000E+00  0.00000000E+00
  0.00000000E+00  0.00000000E+00  0.00000000E+00
  0.00000000E+00  0.00000000E+00  0.00000000E+00
  0.00000000E+00  0.00000000E+00  0.00000000E+00
  0.00000000E+00  0.00000000E+00  0.00000000E+00
  0.00000000E+00  0.00000000E+00  0.00000000E+00
  0.00000000E+00  0.00000000E+00  0.00000000E+00
  0.00000000E+00  0.00000000E+00  0.00000000E+00
  0.00000000E+00  0.00000000E+00  0.00000000E+00
  0.00000000E+00  0.00000000E+00  0.00000000E+00
  0.00000000E+00  0.00000000E+00  0.00000000E+00
  0.00000000E+00  0.00000000E+00  0.00000000E+00
  0.00000000E+00  0.00000000E+00  0.00000000E+00
  0.00000000E+00  0.00000000E+00  0.00000000E+00
  0.00000000E+00  0.00000000E+00  0.00000000E+00
  0.00000000E+00  0.00000000E+00  0.00000000E+00
  0.00000000E+00  0.00000000E+00  0.00000000E+00
  0.00000000E+00  0.00000000E+00  0.00000000E+00
  0.00000000E+00  0.00000000E+00  0.00000000E+00
  0.00000000E+00  0.00000000E+00  0.00000000E+00
  0.00000000E+00  0.00000000E+00  0.00000000E+00
  0.00000000E+00  0.00000000E+00  0.00000000E+00
  0.00000000E+00  0.00000000E+00  0.00000000E+00
  0.00000000E+00  0.00000000E+00  0.00000000E+00
  0.00000000E+00  0.00000000E+00  0.00000000E+00
  0.00000000E+00  0.00000000E+00  0.00000000E+00
  0.00000000E+00  0.00000000E+00  0.00000000E+00
  0.00000000E+00  0.00000000E+00  0.00000000E+00
  0.00000000E+00  0.00000000E+00  0.00000000E+00
  0.00000000E+00  0.00000000E+00  0.00000000E+00
  0.00000000E+00  0.00000000E+00  0.00000000E+00
  0.00000000E+00  0.00000000E+00  0.00000000E+00
  0.00000000E+00  0.00000000E+00  0.00000000E+00
  0.00000000E+00  0.00000000E+00  0.00000000E+00
  0.00000000E+00  0.00000000E+00  0.00000000E+00
  0.00000000E+00  0.00000000E+00  0.00000000E+00
  0.00000000E+00  0.00000000E+00  0.00000000E+00
  0.00000000E+00  0.00000000E+00  0.00000000E+00
  0.00000000E+00  0.00000000E+00  0.00000000E+00
  0.00000000E+00  0.00000000E+00  0.00000000E+00
  0.00000000E+00  0.00000000E+00  0.00000000E+00
  0.00000000E+00  0.00000000E+00  0.00000000E+00
  0.00000000E+00  0.00000000E+00  0.00000000E+00
  0.00000000E+00  0.00000000E+00  0.00000000E+00
