661_Li2S3                               
   1.00000000000000     
    19.1044006348000011    0.0000000000000000    0.0000000000000000
    -9.5522003174000005   16.5448962737999992    0.0000000000000000
     0.0000000000000000    0.0000000000000000   18.1270999908000014
   Mo   S    Li
    36    75     1
Direct
 -0.0011041203925307  0.0016102699057389  0.5009358421918160
 -0.0011111341981718  0.1682345778205531  0.5005938804020147
 -0.0010776822057261  0.3348824601880168  0.5004772903611278
 -0.0011224183236800  0.5014407087361863  0.5007962521068147
 -0.0012740125970006  0.6681009780598799  0.5010963456526233
 -0.0010878505656182  0.8349449970292054  0.5010737603617050
  0.1655616654327392  0.0015902186509673  0.5009298961688390
  0.1654963617171284  0.1682018907713292  0.5005717632535851
  0.1655080218763352  0.3348801274573809  0.5005458312895027
  0.1655220788846392  0.5015246915682632  0.5008344665223771
  0.1654770661660882  0.6681335847600745  0.5011165435328283
  0.1655026274640002  0.8348572573818897  0.5011326675053140
  0.3322332725828900  0.0016078334214060  0.5009862958330131
  0.3322213890748153  0.1682546470561690  0.5006240273979933
  0.3321088682486309  0.3348815389527471  0.5002067786825106
  0.3320876990206520  0.5014572945623984  0.5008558879206871
  0.3322076927346350  0.6681747682119783  0.5011631360264849
  0.3321828904692831  0.8348551317514118  0.5011648730840382
  0.4988935296844132  0.0016154846524709  0.5009841874920298
  0.4990225653860276  0.1684899594781219  0.5006952225501252
  0.4984942946490882  0.3348907367941202  0.5001651142068078
  0.4984007152174408  0.5010467706935798  0.5009703128058397
  0.4989137271750004  0.6681090009733106  0.5011629595768472
  0.4988948606232316  0.8348892370833318  0.5011488505535460
  0.6655596688642823  0.0015889016639325  0.5008536464991921
  0.6655804743910319  0.1682123633657885  0.5005438779681075
  0.6660196000166642  0.3348590918504419  0.5000391136284837
  0.6654745789057243  0.5012686250530043  0.5005771818930497
  0.6658644738907645  0.6685304533298181  0.5009621692543561
  0.6655588745634214  0.8349410240247518  0.5010845637432652
  0.8322401664499488  0.0015987413390461  0.5008672793311416
  0.8322566553925911  0.1682101118442725  0.5004465958989626
  0.8323194197033426  0.3348837952297671  0.5000717964713757
  0.8321294732321198  0.5010759326634807  0.5009167922910622
  0.8322038329057866  0.6684993254861848  0.5008203901826764
  0.8322464612797088  0.8349645916502288  0.5011277749431328
  0.1101033346085923  0.0573280380570174  0.5867213823547013
  0.1100108789338143  0.2238133083934550  0.5864423569465421
  0.1098848016048709  0.3902741607325033  0.5865233219919345
  0.1098554321535574  0.5568711083468426  0.5868302071341760
  0.1098622907648062  0.7236652452981219  0.5870013357227106
  0.1100443483619951  0.8905757542289420  0.5869475674593572
  0.2767822625895430  0.0573622435463038  0.5867314879403750
  0.2766705414229750  0.2239032964997535  0.5863680859604805
  0.2765546305056937  0.3901861573040838  0.5865062029930943
  0.2765057718766772  0.5568841448759111  0.5868447767352588
  0.2765759342093651  0.7236914177268846  0.5870601041609202
  0.2766813118218857  0.8905382306551123  0.5869711695252884
  0.4435014716563515  0.0574974696022836  0.5867732683129071
  0.4433766179987968  0.2240930934735632  0.5865944126263433
  0.4428533368663231  0.3898365883116863  0.5864439572021994
  0.4429766796232505  0.5567443507339969  0.5868897917040066
  0.4433646146666985  0.7237268470778311  0.5870401036689357
  0.4433702177232631  0.8905707558771615  0.5869921250187147
  0.6101414942891495  0.0573639964132296  0.5867007726337595
  0.6103182660041662  0.2240342599229589  0.5865202220322675
  0.6094095539186688  0.3890291271733424  0.5853508880139036
  0.6096942957437504  0.5571910301152077  0.5866760596391746
  0.6101152240995337  0.7238842370884627  0.5869559122908397
  0.6100889939636611  0.8906452602245239  0.5869395056959912
  0.7767754192661668  0.0573720272134997  0.5866067746092525
  0.7767954152402867  0.2239031850157100  0.5862431280871639
  0.7765611047953180  0.3898224819677826  0.5863441771868237
  0.7770807151538798  0.5572822852309384  0.5866474605534640
  0.7767662870451074  0.7239008219116055  0.5869938984240882
  0.7767244206436517  0.8906492387774744  0.5869123621360214
  0.9433946468990558  0.0573183634722556  0.5867123800669439
  0.9433184032929501  0.2238234412887087  0.5863747467626764
  0.9431506565757118  0.3901690816415945  0.5864236280484572
  0.9432614486503482  0.5567370963674306  0.5868296661138661
  0.9432653871389413  0.7238296165903098  0.5868768800147214
  0.9434481340784935  0.8906350556014050  0.5869396480198857
  0.1098822231243066  0.0569279560955554  0.4149287562319106
  0.1099456072319275  0.2237386381808721  0.4146683319314434
  0.1101048550413869  0.3906097283762011  0.4147114340448136
  0.1100508689437896  0.5572139996135886  0.4150294168380381
  0.1099141747868696  0.7237157053783588  0.4152934319085691
  0.1100023914712150  0.8903932078611292  0.4151861510664776
  0.2766044687419796  0.0569468147621892  0.4149683781891567
  0.2765220012107441  0.2235740437462062  0.4145867226503824
  0.2765588274751598  0.3906096568713597  0.4146015994759001
  0.2767345078391664  0.5572836280083722  0.4150681197591142
  0.2766443785916740  0.7237371291044497  0.4153081507018028
  0.2766279646338367  0.8903613332288681  0.4152354245297277
  0.4432947712519775  0.0571003114000991  0.4150971035850223
  0.4431752406378097  0.2235700300676939  0.4145839200425072
  0.4431823680712724  0.3906368657357339  0.4143190799079623
  0.4433062695739478  0.5571085467570329  0.4151576690823471
  0.4433608296694357  0.7237360884010444  0.4153246653526911
  0.4432512826467052  0.8903640327266615  0.4152482950080407
  0.6098222244716566  0.0569071180057176  0.4149117534687132
  0.6099270601532616  0.2235281231801926  0.4145246435374757
  0.6100261512546903  0.3905050655693309  0.4143290925676678
  0.6098677721866086  0.5571203325759528  0.4152238644940110
  0.6099900498278403  0.7238085734540075  0.4152212562252794
  0.6098969671881531  0.8903437248842934  0.4151580590701506
  0.7765818855239629  0.0569116593243332  0.4148302652085273
  0.7765657965365600  0.2235577538565676  0.4144666258411920
  0.7770381231920244  0.3906912059528116  0.4141964790636798
  0.7767685285733166  0.5571065356525190  0.4150735348022110
  0.7767446374355939  0.7240273521495640  0.4150033455541762
  0.7766390551120085  0.8903947386061299  0.4151615325171235
  0.9433027320719398  0.0569865087103971  0.4149192923124354
  0.9433904683817884  0.2237401228363245  0.4145955570808756
  0.9436157593414323  0.3906183825896138  0.4145197542020368
  0.9433067952328185  0.5571042931523660  0.4151073732117116
  0.9434199275400287  0.7238695400851832  0.4151506350023703
  0.9433165722648731  0.8904384282340211  0.4151921881843286
  0.5339983668511872  0.4082216704700713  0.7499782796545933
  0.5979100944246314  0.3552347194088756  0.7784790128180846
  0.7146539590901474  0.4240576278666492  0.7510538178510578
  0.6591739104951974  0.4953888669006089  0.6898338516557546
 
  0.00000000E+00  0.00000000E+00  0.00000000E+00
  0.00000000E+00  0.00000000E+00  0.00000000E+00
  0.00000000E+00  0.00000000E+00  0.00000000E+00
  0.00000000E+00  0.00000000E+00  0.00000000E+00
  0.00000000E+00  0.00000000E+00  0.00000000E+00
  0.00000000E+00  0.00000000E+00  0.00000000E+00
  0.00000000E+00  0.00000000E+00  0.00000000E+00
  0.00000000E+00  0.00000000E+00  0.00000000E+00
  0.00000000E+00  0.00000000E+00  0.00000000E+00
  0.00000000E+00  0.00000000E+00  0.00000000E+00
  0.00000000E+00  0.00000000E+00  0.00000000E+00
  0.00000000E+00  0.00000000E+00  0.00000000E+00
  0.00000000E+00  0.00000000E+00  0.00000000E+00
  0.00000000E+00  0.00000000E+00  0.00000000E+00
  0.00000000E+00  0.00000000E+00  0.00000000E+00
  0.00000000E+00  0.00000000E+00  0.00000000E+00
  0.00000000E+00  0.00000000E+00  0.00000000E+00
  0.00000000E+00  0.00000000E+00  0.00000000E+00
  0.00000000E+00  0.00000000E+00  0.00000000E+00
  0.00000000E+00  0.00000000E+00  0.00000000E+00
  0.00000000E+00  0.00000000E+00  0.00000000E+00
  0.00000000E+00  0.00000000E+00  0.00000000E+00
  0.00000000E+00  0.00000000E+00  0.00000000E+00
  0.00000000E+00  0.00000000E+00  0.00000000E+00
  0.00000000E+00  0.00000000E+00  0.00000000E+00
  0.00000000E+00  0.00000000E+00  0.00000000E+00
  0.00000000E+00  0.00000000E+00  0.00000000E+00
  0.00000000E+00  0.00000000E+00  0.00000000E+00
  0.00000000E+00  0.00000000E+00  0.00000000E+00
  0.00000000E+00  0.00000000E+00  0.00000000E+00
  0.00000000E+00  0.00000000E+00  0.00000000E+00
  0.00000000E+00  0.00000000E+00  0.00000000E+00
  0.00000000E+00  0.00000000E+00  0.00000000E+00
  0.00000000E+00  0.00000000E+00  0.00000000E+00
  0.00000000E+00  0.00000000E+00  0.00000000E+00
  0.00000000E+00  0.00000000E+00  0.00000000E+00
  0.00000000E+00  0.00000000E+00  0.00000000E+00
  0.00000000E+00  0.00000000E+00  0.00000000E+00
  0.00000000E+00  0.00000000E+00  0.00000000E+00
  0.00000000E+00  0.00000000E+00  0.00000000E+00
  0.00000000E+00  0.00000000E+00  0.00000000E+00
  0.00000000E+00  0.00000000E+00  0.00000000E+00
  0.00000000E+00  0.00000000E+00  0.00000000E+00
  0.00000000E+00  0.00000000E+00  0.00000000E+00
  0.00000000E+00  0.00000000E+00  0.00000000E+00
  0.00000000E+00  0.00000000E+00  0.00000000E+00
  0.00000000E+00  0.00000000E+00  0.00000000E+00
  0.00000000E+00  0.00000000E+00  0.00000000E+00
  0.00000000E+00  0.00000000E+00  0.00000000E+00
  0.00000000E+00  0.00000000E+00  0.00000000E+00
  0.00000000E+00  0.00000000E+00  0.00000000E+00
  0.00000000E+00  0.00000000E+00  0.00000000E+00
  0.00000000E+00  0.00000000E+00  0.00000000E+00
  0.00000000E+00  0.00000000E+00  0.00000000E+00
  0.00000000E+00  0.00000000E+00  0.00000000E+00
  0.00000000E+00  0.00000000E+00  0.00000000E+00
  0.00000000E+00  0.00000000E+00  0.00000000E+00
  0.00000000E+00  0.00000000E+00  0.00000000E+00
  0.00000000E+00  0.00000000E+00  0.00000000E+00
  0.00000000E+00  0.00000000E+00  0.00000000E+00
  0.00000000E+00  0.00000000E+00  0.00000000E+00
  0.00000000E+00  0.00000000E+00  0.00000000E+00
  0.00000000E+00  0.00000000E+00  0.00000000E+00
  0.00000000E+00  0.00000000E+00  0.00000000E+00
  0.00000000E+00  0.00000000E+00  0.00000000E+00
  0.00000000E+00  0.00000000E+00  0.00000000E+00
  0.00000000E+00  0.00000000E+00  0.00000000E+00
  0.00000000E+00  0.00000000E+00  0.00000000E+00
  0.00000000E+00  0.00000000E+00  0.00000000E+00
  0.00000000E+00  0.00000000E+00  0.00000000E+00
  0.00000000E+00  0.00000000E+00  0.00000000E+00
  0.00000000E+00  0.00000000E+00  0.00000000E+00
  0.00000000E+00  0.00000000E+00  0.00000000E+00
  0.00000000E+00  0.00000000E+00  0.00000000E+00
  0.00000000E+00  0.00000000E+00  0.00000000E+00
  0.00000000E+00  0.00000000E+00  0.00000000E+00
  0.00000000E+00  0.00000000E+00  0.00000000E+00
  0.00000000E+00  0.00000000E+00  0.00000000E+00
  0.00000000E+00  0.00000000E+00  0.00000000E+00
  0.00000000E+00  0.00000000E+00  0.00000000E+00
  0.00000000E+00  0.00000000E+00  0.00000000E+00
  0.00000000E+00  0.00000000E+00  0.00000000E+00
  0.00000000E+00  0.00000000E+00  0.00000000E+00
  0.00000000E+00  0.00000000E+00  0.00000000E+00
  0.00000000E+00  0.00000000E+00  0.00000000E+00
  0.00000000E+00  0.00000000E+00  0.00000000E+00
  0.00000000E+00  0.00000000E+00  0.00000000E+00
  0.00000000E+00  0.00000000E+00  0.00000000E+00
  0.00000000E+00  0.00000000E+00  0.00000000E+00
  0.00000000E+00  0.00000000E+00  0.00000000E+00
  0.00000000E+00  0.00000000E+00  0.00000000E+00
  0.00000000E+00  0.00000000E+00  0.00000000E+00
  0.00000000E+00  0.00000000E+00  0.00000000E+00
  0.00000000E+00  0.00000000E+00  0.00000000E+00
  0.00000000E+00  0.00000000E+00  0.00000000E+00
  0.00000000E+00  0.00000000E+00  0.00000000E+00
  0.00000000E+00  0.00000000E+00  0.00000000E+00
  0.00000000E+00  0.00000000E+00  0.00000000E+00
  0.00000000E+00  0.00000000E+00  0.00000000E+00
  0.00000000E+00  0.00000000E+00  0.00000000E+00
  0.00000000E+00  0.00000000E+00  0.00000000E+00
  0.00000000E+00  0.00000000E+00  0.00000000E+00
  0.00000000E+00  0.00000000E+00  0.00000000E+00
  0.00000000E+00  0.00000000E+00  0.00000000E+00
  0.00000000E+00  0.00000000E+00  0.00000000E+00
  0.00000000E+00  0.00000000E+00  0.00000000E+00
  0.00000000E+00  0.00000000E+00  0.00000000E+00
  0.00000000E+00  0.00000000E+00  0.00000000E+00
  0.00000000E+00  0.00000000E+00  0.00000000E+00
  0.00000000E+00  0.00000000E+00  0.00000000E+00
  0.00000000E+00  0.00000000E+00  0.00000000E+00
  0.00000000E+00  0.00000000E+00  0.00000000E+00
