Autosave\of\661                         
   1.00000000000000     
    19.1044006348000011    0.0000000000000000    0.0000000000000000
    -9.5522003174000005   16.5448962737999992    0.0000000000000000
     0.0000000000000000    0.0000000000000000   18.1270999908000014
   Mo   S    Li
    36    79     2
Direct
 -0.0022076590999777  0.0016351505286940  0.4969440275945698
 -0.0022643173402865  0.1681943004383774  0.4967118135017881
 -0.0022499710641377  0.3348781923323926  0.4967625531642186
 -0.0022413871574930  0.5015388215071811  0.4967758883127322
 -0.0022990010234708  0.6681739522017386  0.4969668994073286
 -0.0023131868344652  0.8348668797557968  0.4971288239005688
  0.1644535015920537  0.0016070805595803  0.4972059215094491
  0.1644389907302238  0.1682515302624204  0.4970863799916802
  0.1643900056003358  0.3348882866239051  0.4967519259009480
  0.1644048696408373  0.5014728316253793  0.4969895315974846
  0.1643916590235097  0.6681445598907481  0.4970627903689458
  0.1644272833616903  0.8348997097298000  0.4971704141344944
  0.3311243267753123  0.0016336749007455  0.4971516124857169
  0.3312467854060533  0.1684651543722379  0.4971658550912005
  0.3308542603489551  0.3349785635405000  0.4973096368369946
  0.3307576381200420  0.5010944202647256  0.4971428306849638
  0.3311980491642869  0.6681339425056294  0.4970823098675421
  0.3310865027531111  0.8348349853426725  0.4970921008237290
  0.4977505364367186  0.0015929085112868  0.4968311790632651
  0.4978052264061371  0.1681867797984305  0.4966271536270998
  0.4981698215235248  0.3347336769458717  0.4961655868361726
  0.4979764806994248  0.5015874897362717  0.4969775219432233
  0.4982258719512500  0.6686254434404866  0.4969522238161058
  0.4977813443127974  0.8349657197987034  0.4968293033788399
  0.6644341249163290  0.0015658800133873  0.4966204316110168
  0.6644235726849101  0.1681349258115963  0.4965241010573603
  0.6645915165385844  0.3347024807327790  0.4959794374106237
  0.6645819754357970  0.5012159715724411  0.4963131601125311
  0.6645022321256614  0.6686244991220879  0.4970186035739124
  0.6644409345290998  0.8349602372513050  0.4963943172918477
  0.8311309610799545  0.0015951146190986  0.4966842083611188
  0.8310781666145677  0.1682153731702596  0.4966158240066673
  0.8311135335965257  0.3348141749416372  0.4965020191729609
  0.8311313070995534  0.5014870032148335  0.4965289783890542
  0.8309278108462664  0.6681517546871062  0.4970208829789560
  0.8310854774866716  0.8349631754465610  0.4969512463272875
  0.1088160426552032  0.0571316078160014  0.5829890343545954
  0.1087278552278334  0.2237849022757252  0.5827773206992881
  0.1087262309791709  0.3903098158753081  0.5828304378281934
  0.1087715892202516  0.5569323521744635  0.5828235502080195
  0.1087573736103300  0.7236782060018510  0.5829238303771006
  0.1088186636881970  0.8904355614165111  0.5830418917547070
  0.2756590875757448  0.0573199863461046  0.5831111280998136
  0.2754242772425491  0.2238393888707774  0.5832440227399815
  0.2750379407220973  0.3901794588036773  0.5829836607387945
  0.2753900257438561  0.5569434983494741  0.5830005378706764
  0.2755098974205130  0.7236273221857870  0.5829711179397310
  0.2755882269207609  0.8904411629698655  0.5830496901961393
  0.4424305563946422  0.0573380830136977  0.5828674287826732
  0.4427187260796719  0.2240986912159308  0.5827365728224615
  0.4423341833153419  0.3894847059583296  0.5824474079858342
  0.4418650960174491  0.5574978921797470  0.5827499474853062
  0.4424745478279924  0.7240497860509598  0.5828774470159508
  0.4423312335521158  0.8904940548384666  0.5828110983974780
  0.6090053642025353  0.0571724419702711  0.5826040805731536
  0.6090708437203449  0.2238879872364153  0.5823342821315601
  0.6091932390963875  0.3899126309015853  0.5815860684227390
  0.6101194509222442  0.5574533362130041  0.5823726446547126
  0.6092771456060523  0.7244598495475337  0.5826651971830459
  0.6089919665384452  0.8905413923204030  0.5825666981857026
  0.7755311825460215  0.0570983383513863  0.5824988997881206
  0.7754877081238590  0.2237491794265808  0.5824326967587830
  0.7754338659611176  0.3902529996938869  0.5822489980009330
  0.7754276323902640  0.5566795941602619  0.5826128158253898
  0.7755191064160654  0.7239610167797752  0.5831064937802467
  0.7753999137922456  0.8905526235655890  0.5825903806870070
  0.9421044038070306  0.0571561710900623  0.5826783915414016
  0.9420981587418720  0.2236918609552618  0.5825672598255308
  0.9420329887295399  0.3903243387658209  0.5825625728104766
  0.9420042042546256  0.5569053368526514  0.5826446408003435
  0.9420228295630503  0.7236140880864237  0.5829673991294357
  0.9421142617114565  0.8905130365463813  0.5828606547058827
  0.1090264516744379  0.0571386163934213  0.4111856637753329
  0.1089510180294525  0.2237286480102379  0.4109593362190633
  0.1088901524834028  0.3905183463731314  0.4109606221834572
  0.1090202349643210  0.5571668203191965  0.4110786233931178
  0.1088981505244181  0.7238378427955460  0.4112250008167928
  0.1088428148635170  0.8904911623933602  0.4113124051498236
  0.2755385292614286  0.0572507218616281  0.4113679867982788
  0.2755755296837167  0.2239283753447878  0.4113578517506704
  0.2755362812127590  0.3903455451840688  0.4110089642584002
  0.2755969072500035  0.5569581315738926  0.4112548842547860
  0.2755328966626532  0.7236758020883344  0.4112716585529740
  0.2755123600635069  0.8904540401432899  0.4113288767423512
  0.4419341171809065  0.0569069612166246  0.4110446095090563
  0.4419795087313660  0.2234328541681180  0.4107635173619122
  0.4420278028261683  0.3905102880602372  0.4111222478349448
  0.4421737277244824  0.5570615905078540  0.4113862519969287
  0.4422661211956236  0.7237247032997574  0.4111411113868562
  0.4420298732629873  0.8903923033544491  0.4110774767985447
  0.6087224558229304  0.0569583189037126  0.4107644021375664
  0.6087286449961992  0.2233982377036419  0.4104970712682836
  0.6090793195470400  0.3903869536692506  0.4100333473871393
  0.6089082583378438  0.5573105144145364  0.4110104942903244
  0.6088771254783051  0.7237171933080456  0.4106861668964106
  0.6086760665581074  0.8904627564149559  0.4106954310357180
  0.7755515775680740  0.0570632006021406  0.4107631030110269
  0.7754957868028222  0.2236706588614140  0.4106446823581912
  0.7758879059792384  0.3905152796585299  0.4104087557653909
  0.7757936280423590  0.5573050855784906  0.4107458701468635
  0.7755634178889398  0.7238941593757988  0.4111313272717089
  0.7757196463799073  0.8904833984371917  0.4107778413002230
  0.9422437052762261  0.0570708638290964  0.4108510500128243
  0.9422703795244328  0.2238325507609865  0.4107967010305132
  0.9423458232455634  0.3904866780687361  0.4107941237843048
  0.9423652594362120  0.5572660184750187  0.4108340441454170
  0.9421110466475143  0.7238067733397355  0.4112028865864373
  0.9422368078966840  0.8904358360926177  0.4111423214777606
  0.6236560835546610  0.6149539933647374  0.8329252850516000
  0.4983769059809166  0.3782759775924520  0.8377141824508606
  0.5860588634817485  0.4443629554057806  0.7505434282538964
  0.3707169189983078  0.4210199551504784  0.7546191880684233
  0.3944698664173262  0.3298154156431987  0.7789609375011054
  0.6762487705581537  0.5476029795275952  0.7951195510419797
  0.5597513436959424  0.6293692580158687  0.7496601716180576
  0.4777760694042325  0.5189627317166488  0.8287802104501520
  0.4952807802878503  0.4983521589988673  0.6850565426408166
 
  0.00000000E+00  0.00000000E+00  0.00000000E+00
  0.00000000E+00  0.00000000E+00  0.00000000E+00
  0.00000000E+00  0.00000000E+00  0.00000000E+00
  0.00000000E+00  0.00000000E+00  0.00000000E+00
  0.00000000E+00  0.00000000E+00  0.00000000E+00
  0.00000000E+00  0.00000000E+00  0.00000000E+00
  0.00000000E+00  0.00000000E+00  0.00000000E+00
  0.00000000E+00  0.00000000E+00  0.00000000E+00
  0.00000000E+00  0.00000000E+00  0.00000000E+00
  0.00000000E+00  0.00000000E+00  0.00000000E+00
  0.00000000E+00  0.00000000E+00  0.00000000E+00
  0.00000000E+00  0.00000000E+00  0.00000000E+00
  0.00000000E+00  0.00000000E+00  0.00000000E+00
  0.00000000E+00  0.00000000E+00  0.00000000E+00
  0.00000000E+00  0.00000000E+00  0.00000000E+00
  0.00000000E+00  0.00000000E+00  0.00000000E+00
  0.00000000E+00  0.00000000E+00  0.00000000E+00
  0.00000000E+00  0.00000000E+00  0.00000000E+00
  0.00000000E+00  0.00000000E+00  0.00000000E+00
  0.00000000E+00  0.00000000E+00  0.00000000E+00
  0.00000000E+00  0.00000000E+00  0.00000000E+00
  0.00000000E+00  0.00000000E+00  0.00000000E+00
  0.00000000E+00  0.00000000E+00  0.00000000E+00
  0.00000000E+00  0.00000000E+00  0.00000000E+00
  0.00000000E+00  0.00000000E+00  0.00000000E+00
  0.00000000E+00  0.00000000E+00  0.00000000E+00
  0.00000000E+00  0.00000000E+00  0.00000000E+00
  0.00000000E+00  0.00000000E+00  0.00000000E+00
  0.00000000E+00  0.00000000E+00  0.00000000E+00
  0.00000000E+00  0.00000000E+00  0.00000000E+00
  0.00000000E+00  0.00000000E+00  0.00000000E+00
  0.00000000E+00  0.00000000E+00  0.00000000E+00
  0.00000000E+00  0.00000000E+00  0.00000000E+00
  0.00000000E+00  0.00000000E+00  0.00000000E+00
  0.00000000E+00  0.00000000E+00  0.00000000E+00
  0.00000000E+00  0.00000000E+00  0.00000000E+00
  0.00000000E+00  0.00000000E+00  0.00000000E+00
  0.00000000E+00  0.00000000E+00  0.00000000E+00
  0.00000000E+00  0.00000000E+00  0.00000000E+00
  0.00000000E+00  0.00000000E+00  0.00000000E+00
  0.00000000E+00  0.00000000E+00  0.00000000E+00
  0.00000000E+00  0.00000000E+00  0.00000000E+00
  0.00000000E+00  0.00000000E+00  0.00000000E+00
  0.00000000E+00  0.00000000E+00  0.00000000E+00
  0.00000000E+00  0.00000000E+00  0.00000000E+00
  0.00000000E+00  0.00000000E+00  0.00000000E+00
  0.00000000E+00  0.00000000E+00  0.00000000E+00
  0.00000000E+00  0.00000000E+00  0.00000000E+00
  0.00000000E+00  0.00000000E+00  0.00000000E+00
  0.00000000E+00  0.00000000E+00  0.00000000E+00
  0.00000000E+00  0.00000000E+00  0.00000000E+00
  0.00000000E+00  0.00000000E+00  0.00000000E+00
  0.00000000E+00  0.00000000E+00  0.00000000E+00
  0.00000000E+00  0.00000000E+00  0.00000000E+00
  0.00000000E+00  0.00000000E+00  0.00000000E+00
  0.00000000E+00  0.00000000E+00  0.00000000E+00
  0.00000000E+00  0.00000000E+00  0.00000000E+00
  0.00000000E+00  0.00000000E+00  0.00000000E+00
  0.00000000E+00  0.00000000E+00  0.00000000E+00
  0.00000000E+00  0.00000000E+00  0.00000000E+00
  0.00000000E+00  0.00000000E+00  0.00000000E+00
  0.00000000E+00  0.00000000E+00  0.00000000E+00
  0.00000000E+00  0.00000000E+00  0.00000000E+00
  0.00000000E+00  0.00000000E+00  0.00000000E+00
  0.00000000E+00  0.00000000E+00  0.00000000E+00
  0.00000000E+00  0.00000000E+00  0.00000000E+00
  0.00000000E+00  0.00000000E+00  0.00000000E+00
  0.00000000E+00  0.00000000E+00  0.00000000E+00
  0.00000000E+00  0.00000000E+00  0.00000000E+00
  0.00000000E+00  0.00000000E+00  0.00000000E+00
  0.00000000E+00  0.00000000E+00  0.00000000E+00
  0.00000000E+00  0.00000000E+00  0.00000000E+00
  0.00000000E+00  0.00000000E+00  0.00000000E+00
  0.00000000E+00  0.00000000E+00  0.00000000E+00
  0.00000000E+00  0.00000000E+00  0.00000000E+00
  0.00000000E+00  0.00000000E+00  0.00000000E+00
  0.00000000E+00  0.00000000E+00  0.00000000E+00
  0.00000000E+00  0.00000000E+00  0.00000000E+00
  0.00000000E+00  0.00000000E+00  0.00000000E+00
  0.00000000E+00  0.00000000E+00  0.00000000E+00
  0.00000000E+00  0.00000000E+00  0.00000000E+00
  0.00000000E+00  0.00000000E+00  0.00000000E+00
  0.00000000E+00  0.00000000E+00  0.00000000E+00
  0.00000000E+00  0.00000000E+00  0.00000000E+00
  0.00000000E+00  0.00000000E+00  0.00000000E+00
  0.00000000E+00  0.00000000E+00  0.00000000E+00
  0.00000000E+00  0.00000000E+00  0.00000000E+00
  0.00000000E+00  0.00000000E+00  0.00000000E+00
  0.00000000E+00  0.00000000E+00  0.00000000E+00
  0.00000000E+00  0.00000000E+00  0.00000000E+00
  0.00000000E+00  0.00000000E+00  0.00000000E+00
  0.00000000E+00  0.00000000E+00  0.00000000E+00
  0.00000000E+00  0.00000000E+00  0.00000000E+00
  0.00000000E+00  0.00000000E+00  0.00000000E+00
  0.00000000E+00  0.00000000E+00  0.00000000E+00
  0.00000000E+00  0.00000000E+00  0.00000000E+00
  0.00000000E+00  0.00000000E+00  0.00000000E+00
  0.00000000E+00  0.00000000E+00  0.00000000E+00
  0.00000000E+00  0.00000000E+00  0.00000000E+00
  0.00000000E+00  0.00000000E+00  0.00000000E+00
  0.00000000E+00  0.00000000E+00  0.00000000E+00
  0.00000000E+00  0.00000000E+00  0.00000000E+00
  0.00000000E+00  0.00000000E+00  0.00000000E+00
  0.00000000E+00  0.00000000E+00  0.00000000E+00
  0.00000000E+00  0.00000000E+00  0.00000000E+00
  0.00000000E+00  0.00000000E+00  0.00000000E+00
  0.00000000E+00  0.00000000E+00  0.00000000E+00
  0.00000000E+00  0.00000000E+00  0.00000000E+00
  0.00000000E+00  0.00000000E+00  0.00000000E+00
  0.00000000E+00  0.00000000E+00  0.00000000E+00
  0.00000000E+00  0.00000000E+00  0.00000000E+00
  0.00000000E+00  0.00000000E+00  0.00000000E+00
  0.00000000E+00  0.00000000E+00  0.00000000E+00
  0.00000000E+00  0.00000000E+00  0.00000000E+00
  0.00000000E+00  0.00000000E+00  0.00000000E+00
  0.00000000E+00  0.00000000E+00  0.00000000E+00
  0.00000000E+00  0.00000000E+00  0.00000000E+00
