Autosave\of\661                         
   1.00000000000000     
    19.1044006348000011    0.0000000000000000    0.0000000000000000
    -9.5522003174000005   16.5448962737999992    0.0000000000000000
     0.0000000000000000    0.0000000000000000   18.1270999908000014
   Mo   S    Li
    36    75     2
Direct
 -0.0006762094603534 -0.0003202583832361  0.5002056609769175
 -0.0006498700507758  0.1663870737663665  0.5000255806294107
 -0.0006608012726407  0.3330585024931014  0.4999249133831181
 -0.0007018456293317  0.4996708252880265  0.4999321794951497
 -0.0007027810514881  0.6663195868038507  0.5000459356257257
 -0.0006883416704394  0.8329951274436377  0.5001824441957075
  0.1659622311888836 -0.0003144791105785  0.5000297037497472
  0.1659134027731973  0.1663189549871005  0.4997662537766386
  0.1659423724458219  0.3330480979026543  0.4998606877380977
  0.1659761625351487  0.4997011228533260  0.5001885463564951
  0.1660079524573315  0.6663596069161640  0.5003098078363297
  0.1659705293496437  0.8330092769105550  0.5002251017553541
  0.3326318546470014 -0.0002493668393518  0.4999749953520552
  0.3326209140491209  0.1664274560252333  0.4995326660657249
  0.3323800180702422  0.3329120657100931  0.4990793084470981
  0.3326020841608597  0.4996401818900826  0.5000855113811390
  0.3327263336275260  0.6663652310425413  0.5004780882452642
  0.3327074418271355  0.8330709592047876  0.5004038607609879
  0.4993799725064262 -0.0002058056290674  0.5001389148137361
  0.4992787025083972  0.1665241039649950  0.4993563410774653
  0.4989690607045768  0.3329444850830297  0.4986198126486887
  0.4988488312491144  0.4992395073651021  0.4995159133022540
  0.4994035842711582  0.6662476808517296  0.5003657349402738
  0.4994246760746083  0.8330556878242499  0.5005497022813046
  0.6660566407192360 -0.0002635792680875  0.5003322503826900
  0.6661078311696070  0.1663605625606629  0.4997537819282135
  0.6662679090247502  0.3328919885492043  0.4984980035312968
  0.6664884407709712  0.4997438210970014  0.4993277410707732
  0.6663692246598300  0.6668969454945266  0.4999148088543636
  0.6660723346784803  0.8330980986257176  0.5005241366898606
  0.8327032503605577 -0.0002772863433313  0.5003517038180043
  0.8327483567398890  0.1663909481932095  0.5000136442068196
  0.8326734950204948  0.3330190054003771  0.4995193730376442
  0.8326429593357472  0.4996307002011379  0.4993997300284000
  0.8326789676927272  0.6663396982260305  0.4997401496633879
  0.8327233400716685  0.8330460984187218  0.5003128500832210
  0.1105866768402151  0.0554150956145681  0.5859145072290496
  0.1105584534680479  0.2219804527211885  0.5857776036483348
  0.1103832452767742  0.3884634394570334  0.5859037123630380
  0.1102270537150643  0.5551088630490829  0.5860529775817271
  0.1102811823816791  0.7218506295352255  0.5860976864500677
  0.1104329933031155  0.8886269039619490  0.5860523648736240
  0.2772500821387168  0.0555680379111282  0.5857358171289324
  0.2772223775219596  0.2221053574522497  0.5853994032688979
  0.2771249167876317  0.3882876542048310  0.5856425178737540
  0.2770559106039160  0.5550678768193935  0.5861485807766323
  0.2770980456210932  0.7219359078751815  0.5862901142943142
  0.2770975950128845  0.8887833716777583  0.5860771182404542
  0.4438613566218177  0.0557568592923208  0.5856595020037706
  0.4440294470578833  0.2225282298502157  0.5852807841003062
  0.4431201097437133  0.3878661348493703  0.5851057240631933
  0.4437369974031357  0.5547198192842607  0.5860023149150961
  0.4438703331163673  0.7218020804289292  0.5863499885405243
  0.4438729181760696  0.8888228047366714  0.5862561758357396
  0.6105355966535011  0.0555491221109613  0.5859621308447329
  0.6104600315210473  0.2223111226885637  0.5851912162760716
  0.6101692473225786  0.3879343128610012  0.5835681619067052
  0.6103751292538864  0.5551174177192590  0.5846633817018055
  0.6105633889504790  0.7218465531373590  0.5862530185323902
  0.6105738910820819  0.8887475123035401  0.5863895572943124
  0.7772626840137551  0.0554826316095212  0.5861208632268677
  0.7771948797316808  0.2221292083533262  0.5856464773917124
  0.7768095397431083  0.3885554911868745  0.5852790944623864
  0.7772060253252420  0.5550301227637975  0.5855562338657252
  0.7772879722217581  0.7217286829486731  0.5860562474173581
  0.7772742651891718  0.8886613379327499  0.5863228006221274
  0.9439411035501021  0.0554246196834765  0.5861003768108015
  0.9438890236708348  0.2220406059574681  0.5858747836036450
  0.9435507615955759  0.3884891515915950  0.5856932988922554
  0.9434147846930941  0.5550107868971075  0.5857030996543803
  0.9436047702531956  0.7216985135233628  0.5859332604816349
  0.9438667909928632  0.8885983306908117  0.5861559259665640
  0.1102043255722217  0.0550346104911323  0.4141123855554064
  0.1102870269352924  0.2218957243030521  0.4139969411418734
  0.1104537828662785  0.3887331355875857  0.4141011823921212
  0.1105883924336559  0.5553751024407189  0.4142814038718240
  0.1105534160095054  0.7219359806273569  0.4143443244313373
  0.1103898737939135  0.8884697500429225  0.4142781028370381
  0.2769191847833473  0.0550507599325578  0.4139725282875381
  0.2767195421774775  0.2215727522021093  0.4135531760496253
  0.2768126993792013  0.3888672848919759  0.4137434865915859
  0.2771547227577741  0.5554576460974469  0.4144065536859505
  0.2772518352178120  0.7219600780776684  0.4145664483194982
  0.2770673094627030  0.8884076945431943  0.4143459167733897
  0.4436300980654971  0.0549747747781248  0.4139792780226382
  0.4434002685864817  0.2216074151482706  0.4131839850785806
  0.4434209006517596  0.3887063909015143  0.4129992154159324
  0.4436291487377545  0.5554125163044978  0.4141112394406213
  0.4438833501111341  0.7219747756917229  0.4146600761945859
  0.4438045443982745  0.8884412389305625  0.4145444903878029
  0.6104444365835555  0.0550142098998126  0.4142050068155207
  0.6103664166924218  0.2213916183229799  0.4132980448293092
  0.6106295218545752  0.3887900101554262  0.4128601954598990
  0.6105924464563287  0.5556032291585254  0.4139784226198024
  0.6104622467633609  0.7222041856273467  0.4143959405929918
  0.6104561430286223  0.8885273324440364  0.4146193000560834
  0.7771067608066454  0.0551132911876133  0.4143654552885840
  0.7772032135523200  0.2217015220303386  0.4138947556112191
  0.7776091473252656  0.3887130768436018  0.4131443876930531
  0.7774599530634717  0.5555393763121425  0.4134649096429440
  0.7773034384943539  0.7222312621716068  0.4140790745045588
  0.7770639156902261  0.8886054286254783  0.4145493078114530
  0.9436702895983423  0.0551391031171069  0.4143432138120959
  0.9438343317665658  0.2218959793084423  0.4140978580603832
  0.9439716956969895  0.3886571092649542  0.4138872988485155
  0.9440606700936355  0.5554232166253504  0.4139065314786960
  0.9439799426762845  0.7220719373943240  0.4141163426420353
  0.9437363679496351  0.8885756639871975  0.4143721660087245
  0.5077944884350868  0.4033768744711539  0.7517594711026584
  0.6061540710791390  0.4414654863130100  0.8252195798587382
  0.7084919554002185  0.5017955913627548  0.7559505950048342
  0.6082282593451525  0.3713408044709257  0.7179523809667964
  0.6101112595984710  0.5317283917131701  0.7186963665453494
 
  0.00000000E+00  0.00000000E+00  0.00000000E+00
  0.00000000E+00  0.00000000E+00  0.00000000E+00
  0.00000000E+00  0.00000000E+00  0.00000000E+00
  0.00000000E+00  0.00000000E+00  0.00000000E+00
  0.00000000E+00  0.00000000E+00  0.00000000E+00
  0.00000000E+00  0.00000000E+00  0.00000000E+00
  0.00000000E+00  0.00000000E+00  0.00000000E+00
  0.00000000E+00  0.00000000E+00  0.00000000E+00
  0.00000000E+00  0.00000000E+00  0.00000000E+00
  0.00000000E+00  0.00000000E+00  0.00000000E+00
  0.00000000E+00  0.00000000E+00  0.00000000E+00
  0.00000000E+00  0.00000000E+00  0.00000000E+00
  0.00000000E+00  0.00000000E+00  0.00000000E+00
  0.00000000E+00  0.00000000E+00  0.00000000E+00
  0.00000000E+00  0.00000000E+00  0.00000000E+00
  0.00000000E+00  0.00000000E+00  0.00000000E+00
  0.00000000E+00  0.00000000E+00  0.00000000E+00
  0.00000000E+00  0.00000000E+00  0.00000000E+00
  0.00000000E+00  0.00000000E+00  0.00000000E+00
  0.00000000E+00  0.00000000E+00  0.00000000E+00
  0.00000000E+00  0.00000000E+00  0.00000000E+00
  0.00000000E+00  0.00000000E+00  0.00000000E+00
  0.00000000E+00  0.00000000E+00  0.00000000E+00
  0.00000000E+00  0.00000000E+00  0.00000000E+00
  0.00000000E+00  0.00000000E+00  0.00000000E+00
  0.00000000E+00  0.00000000E+00  0.00000000E+00
  0.00000000E+00  0.00000000E+00  0.00000000E+00
  0.00000000E+00  0.00000000E+00  0.00000000E+00
  0.00000000E+00  0.00000000E+00  0.00000000E+00
  0.00000000E+00  0.00000000E+00  0.00000000E+00
  0.00000000E+00  0.00000000E+00  0.00000000E+00
  0.00000000E+00  0.00000000E+00  0.00000000E+00
  0.00000000E+00  0.00000000E+00  0.00000000E+00
  0.00000000E+00  0.00000000E+00  0.00000000E+00
  0.00000000E+00  0.00000000E+00  0.00000000E+00
  0.00000000E+00  0.00000000E+00  0.00000000E+00
  0.00000000E+00  0.00000000E+00  0.00000000E+00
  0.00000000E+00  0.00000000E+00  0.00000000E+00
  0.00000000E+00  0.00000000E+00  0.00000000E+00
  0.00000000E+00  0.00000000E+00  0.00000000E+00
  0.00000000E+00  0.00000000E+00  0.00000000E+00
  0.00000000E+00  0.00000000E+00  0.00000000E+00
  0.00000000E+00  0.00000000E+00  0.00000000E+00
  0.00000000E+00  0.00000000E+00  0.00000000E+00
  0.00000000E+00  0.00000000E+00  0.00000000E+00
  0.00000000E+00  0.00000000E+00  0.00000000E+00
  0.00000000E+00  0.00000000E+00  0.00000000E+00
  0.00000000E+00  0.00000000E+00  0.00000000E+00
  0.00000000E+00  0.00000000E+00  0.00000000E+00
  0.00000000E+00  0.00000000E+00  0.00000000E+00
  0.00000000E+00  0.00000000E+00  0.00000000E+00
  0.00000000E+00  0.00000000E+00  0.00000000E+00
  0.00000000E+00  0.00000000E+00  0.00000000E+00
  0.00000000E+00  0.00000000E+00  0.00000000E+00
  0.00000000E+00  0.00000000E+00  0.00000000E+00
  0.00000000E+00  0.00000000E+00  0.00000000E+00
  0.00000000E+00  0.00000000E+00  0.00000000E+00
  0.00000000E+00  0.00000000E+00  0.00000000E+00
  0.00000000E+00  0.00000000E+00  0.00000000E+00
  0.00000000E+00  0.00000000E+00  0.00000000E+00
  0.00000000E+00  0.00000000E+00  0.00000000E+00
  0.00000000E+00  0.00000000E+00  0.00000000E+00
  0.00000000E+00  0.00000000E+00  0.00000000E+00
  0.00000000E+00  0.00000000E+00  0.00000000E+00
  0.00000000E+00  0.00000000E+00  0.00000000E+00
  0.00000000E+00  0.00000000E+00  0.00000000E+00
  0.00000000E+00  0.00000000E+00  0.00000000E+00
  0.00000000E+00  0.00000000E+00  0.00000000E+00
  0.00000000E+00  0.00000000E+00  0.00000000E+00
  0.00000000E+00  0.00000000E+00  0.00000000E+00
  0.00000000E+00  0.00000000E+00  0.00000000E+00
  0.00000000E+00  0.00000000E+00  0.00000000E+00
  0.00000000E+00  0.00000000E+00  0.00000000E+00
  0.00000000E+00  0.00000000E+00  0.00000000E+00
  0.00000000E+00  0.00000000E+00  0.00000000E+00
  0.00000000E+00  0.00000000E+00  0.00000000E+00
  0.00000000E+00  0.00000000E+00  0.00000000E+00
  0.00000000E+00  0.00000000E+00  0.00000000E+00
  0.00000000E+00  0.00000000E+00  0.00000000E+00
  0.00000000E+00  0.00000000E+00  0.00000000E+00
  0.00000000E+00  0.00000000E+00  0.00000000E+00
  0.00000000E+00  0.00000000E+00  0.00000000E+00
  0.00000000E+00  0.00000000E+00  0.00000000E+00
  0.00000000E+00  0.00000000E+00  0.00000000E+00
  0.00000000E+00  0.00000000E+00  0.00000000E+00
  0.00000000E+00  0.00000000E+00  0.00000000E+00
  0.00000000E+00  0.00000000E+00  0.00000000E+00
  0.00000000E+00  0.00000000E+00  0.00000000E+00
  0.00000000E+00  0.00000000E+00  0.00000000E+00
  0.00000000E+00  0.00000000E+00  0.00000000E+00
  0.00000000E+00  0.00000000E+00  0.00000000E+00
  0.00000000E+00  0.00000000E+00  0.00000000E+00
  0.00000000E+00  0.00000000E+00  0.00000000E+00
  0.00000000E+00  0.00000000E+00  0.00000000E+00
  0.00000000E+00  0.00000000E+00  0.00000000E+00
  0.00000000E+00  0.00000000E+00  0.00000000E+00
  0.00000000E+00  0.00000000E+00  0.00000000E+00
  0.00000000E+00  0.00000000E+00  0.00000000E+00
  0.00000000E+00  0.00000000E+00  0.00000000E+00
  0.00000000E+00  0.00000000E+00  0.00000000E+00
  0.00000000E+00  0.00000000E+00  0.00000000E+00
  0.00000000E+00  0.00000000E+00  0.00000000E+00
  0.00000000E+00  0.00000000E+00  0.00000000E+00
  0.00000000E+00  0.00000000E+00  0.00000000E+00
  0.00000000E+00  0.00000000E+00  0.00000000E+00
  0.00000000E+00  0.00000000E+00  0.00000000E+00
  0.00000000E+00  0.00000000E+00  0.00000000E+00
  0.00000000E+00  0.00000000E+00  0.00000000E+00
  0.00000000E+00  0.00000000E+00  0.00000000E+00
  0.00000000E+00  0.00000000E+00  0.00000000E+00
  0.00000000E+00  0.00000000E+00  0.00000000E+00
  0.00000000E+00  0.00000000E+00  0.00000000E+00
  0.00000000E+00  0.00000000E+00  0.00000000E+00
