661_LiS                                 
   1.00000000000000     
    19.1044006348000011    0.0000000000000000    0.0000000000000000
    -9.5522003174000005   16.5448962737999992    0.0000000000000000
     0.0000000000000000    0.0000000000000000   18.1270999908000014
   Mo   S    Li
    36    74     2
Direct
 -0.0007318051864643  0.0018665474025831  0.4993636628398874
 -0.0009592458072310  0.1689191114221937  0.4998460805149582
 -0.0008989807612244  0.3353900188425046  0.5002983645658786
 -0.0006973536016099  0.5019389802890593  0.5004036004849910
 -0.0008348677627849  0.6684353421792661  0.5001190550979141
 -0.0004048702020084  0.8352960303015983  0.4995705932191220
  0.1663685482652952  0.0020852784075625  0.4991550758420467
  0.1635453580884411  0.1675119308289654  0.4990764739789710
  0.1657641078445398  0.3350981050222345  0.5008465937894808
  0.1661457527887139  0.5020501939880994  0.5005547999126674
  0.1660629734149544  0.6685424875085281  0.5000483768212478
  0.1661695943705688  0.8351936462247872  0.4995127488700192
  0.3327850301911451  0.0017035310532318  0.4992219443717384
  0.3328388218737591  0.1671056740990043  0.4991706729649014
  0.3325437944523157  0.3363154166879212  0.5008241377368704
  0.3331558010665080  0.5028131125437554  0.5009616602919384
  0.3328332325586102  0.6688930826615104  0.5002554436994140
  0.3327657290706256  0.8352333438102171  0.4995421941364423
  0.4993399873992023  0.0019862119355274  0.4993144084934989
  0.4998184416821909  0.1688084868169892  0.4995412737724860
  0.5054001953569358  0.3377289324317980  0.5002121872065647
  0.4996283035740638  0.5020829880499688  0.5013418003012016
  0.4995728963211047  0.6687650557850273  0.5007549849118638
  0.4993460315022825  0.8353903133803802  0.4997644311626387
  0.6657549892185485  0.0020489828873531  0.4994750969011739
  0.6664279406212624  0.1684808882135102  0.4995422923884519
  0.6643532087571565  0.3369568446493750  0.5001844762077212
  0.6621073504121718  0.4946137792467876  0.5012193044897164
  0.6674853580191905  0.6707644071918745  0.5004600940995929
  0.6657845474949162  0.8354373517222231  0.4998978789541620
  0.8324778857247487  0.0021890935048576  0.4995637901012606
  0.8324703428794290  0.1686577877431048  0.4996526853732999
  0.8326259508625699  0.3347945747795839  0.5002016408734280
  0.8325401849919720  0.5012322747688294  0.5008364165495534
  0.8336022948459650  0.6707951373445580  0.5001685240947987
  0.8328744737145111  0.8359125916852218  0.4998488496214817
  0.1099353827781065  0.0570049020379851  0.5851266842546859
  0.1094073128532341  0.2232254321324109  0.5859539452718964
  0.1099379659006570  0.3907772592030762  0.5863572161914494
  0.1104756623952896  0.5576799200445797  0.5862490287826508
  0.1105579161747989  0.7242926681171579  0.5857287405014864
  0.1108662192147196  0.8911449871609306  0.5852231977680696
  0.2774680515537393  0.0569246446485543  0.5853085755081919
  0.2759000831822094  0.2220239750843058  0.5819893948520551
  0.2770527681185484  0.3920956193893656  0.5868499277988590
  0.2772616203106497  0.5584068838549793  0.5864731726441793
  0.2772339207487612  0.7246058836203020  0.5858232186999409
  0.2773213428064036  0.8908476125318955  0.5853268054353976
  0.4440327782632906  0.0575977631682888  0.5852491378688600
  0.4443048021610558  0.2240047742987920  0.5853043093965824
  0.4456210737244555  0.3911071761289181  0.5870632380119977
  0.4441841708907555  0.5579359304018596  0.5870006406192174
  0.4439493101317410  0.7247448060872254  0.5861211327615092
  0.4438233860922922  0.8911343678115949  0.5854138903642325
  0.6102134608706415  0.0575436090861572  0.5854318452863178
  0.6105929686513408  0.2239101381890584  0.5857881371135157
  0.6096610873866345  0.3885223595639063  0.5916942423513040
  0.6113762987985695  0.5589283043582266  0.5868623153871004
  0.6108622818071856  0.7250773948729913  0.5864347829674342
  0.6104062828729458  0.8912698600912233  0.5855995795185130
  0.7768333062793381  0.0575697971701869  0.5854401819295769
  0.7768459953760302  0.2238166199316448  0.5857530032896995
  0.7767060818986423  0.3901248265587440  0.5865811210307033
  0.7776743221295584  0.5581758533520156  0.5858762973026176
  0.7780607712929772  0.7256383783280614  0.5861914430434122
  0.7771893323714634  0.8914753397431862  0.5856198468429044
  0.9435012689774195  0.0573819138884754  0.5853488986794323
  0.9431676900401278  0.2239710543082490  0.5858630005171497
  0.9434771651978399  0.3907844648849295  0.5863067430849650
  0.9438318344099398  0.5574025010841787  0.5863200233045237
  0.9444626289811872  0.7248256881623905  0.5860793120987503
  0.9441379078896286  0.8912231698232800  0.5854253236403264
  0.1099122491278461  0.0568636737825922  0.4129829603918290
  0.1098542320209718  0.2250043346130725  0.4136694195718242
  0.1105609641914008  0.3908882585347458  0.4147948929541134
  0.1103913442684919  0.5572373109468218  0.4144580237081165
  0.1102004205509064  0.7236834418718927  0.4140639002943408
  0.1105867574382308  0.8906647510928325  0.4135373508249010
  0.2772957328984343  0.0569160382528471  0.4128327216707656
  0.2772169655028736  0.2246886661806383  0.4154439927675228
  0.2773401110806859  0.3916281872945092  0.4149815869339705
  0.2773597390123428  0.5576763204289127  0.4146859709091529
  0.2770549623254776  0.7238671596017660  0.4140039858641439
  0.2771740083736040  0.8904819774655987  0.4134824011038810
  0.4441669723465775  0.0579410374933571  0.4134063809550693
  0.4452798896791341  0.2256525274694875  0.4138754056771686
  0.4450866787128492  0.3907883299072484  0.4155575957399848
  0.4443776245645140  0.5573116143553836  0.4151197331037658
  0.4439260503728847  0.7238874681078321  0.4143805319939887
  0.4438042390015239  0.8906823792011805  0.4135678357481286
  0.6104313144806931  0.0576837715510000  0.4133932463012189
  0.6110838531201401  0.2252041867012871  0.4140869601728420
  0.6110768155177722  0.3903086935213468  0.4092023268948936
  0.6114146328197982  0.5568050118014354  0.4162132823895024
  0.6102907125758352  0.7240292774248379  0.4143013714795040
  0.6102985753836271  0.8907874069896449  0.4137504392734676
  0.7769154472711675  0.0576471392838405  0.4136257311778819
  0.7772374641405689  0.2244797084664009  0.4137244950638185
  0.7765349642189071  0.3907627778116304  0.4146842863442882
  0.7753411171136526  0.5565904015510271  0.4161378358545630
  0.7773240667552371  0.7247447549154080  0.4141112359849029
  0.7768955559934020  0.8910320106308860  0.4138733513192653
  0.9436721986865020  0.0578233709825364  0.4137655376804206
  0.9436651002203392  0.2245976784083116  0.4139883446368105
  0.9436748200980766  0.3910235842320868  0.4143388954088790
  0.9430300358262285  0.5569438626192952  0.4145562725332385
  0.9438109002867267  0.7239481196154736  0.4138074407500830
  0.9436771355648301  0.8907470722508164  0.4136829629450539
  0.2724102581041957  0.2186340889760204  0.6913865169148133
  0.6068104612624530  0.3881681712851806  0.7066763293476641
  0.3483223073132399  0.3589992089833957  0.6821274556708465
  0.6788368652032184  0.5240228108683844  0.6834510228823685
 
  0.00000000E+00  0.00000000E+00  0.00000000E+00
  0.00000000E+00  0.00000000E+00  0.00000000E+00
  0.00000000E+00  0.00000000E+00  0.00000000E+00
  0.00000000E+00  0.00000000E+00  0.00000000E+00
  0.00000000E+00  0.00000000E+00  0.00000000E+00
  0.00000000E+00  0.00000000E+00  0.00000000E+00
  0.00000000E+00  0.00000000E+00  0.00000000E+00
  0.00000000E+00  0.00000000E+00  0.00000000E+00
  0.00000000E+00  0.00000000E+00  0.00000000E+00
  0.00000000E+00  0.00000000E+00  0.00000000E+00
  0.00000000E+00  0.00000000E+00  0.00000000E+00
  0.00000000E+00  0.00000000E+00  0.00000000E+00
  0.00000000E+00  0.00000000E+00  0.00000000E+00
  0.00000000E+00  0.00000000E+00  0.00000000E+00
  0.00000000E+00  0.00000000E+00  0.00000000E+00
  0.00000000E+00  0.00000000E+00  0.00000000E+00
  0.00000000E+00  0.00000000E+00  0.00000000E+00
  0.00000000E+00  0.00000000E+00  0.00000000E+00
  0.00000000E+00  0.00000000E+00  0.00000000E+00
  0.00000000E+00  0.00000000E+00  0.00000000E+00
  0.00000000E+00  0.00000000E+00  0.00000000E+00
  0.00000000E+00  0.00000000E+00  0.00000000E+00
  0.00000000E+00  0.00000000E+00  0.00000000E+00
  0.00000000E+00  0.00000000E+00  0.00000000E+00
  0.00000000E+00  0.00000000E+00  0.00000000E+00
  0.00000000E+00  0.00000000E+00  0.00000000E+00
  0.00000000E+00  0.00000000E+00  0.00000000E+00
  0.00000000E+00  0.00000000E+00  0.00000000E+00
  0.00000000E+00  0.00000000E+00  0.00000000E+00
  0.00000000E+00  0.00000000E+00  0.00000000E+00
  0.00000000E+00  0.00000000E+00  0.00000000E+00
  0.00000000E+00  0.00000000E+00  0.00000000E+00
  0.00000000E+00  0.00000000E+00  0.00000000E+00
  0.00000000E+00  0.00000000E+00  0.00000000E+00
  0.00000000E+00  0.00000000E+00  0.00000000E+00
  0.00000000E+00  0.00000000E+00  0.00000000E+00
  0.00000000E+00  0.00000000E+00  0.00000000E+00
  0.00000000E+00  0.00000000E+00  0.00000000E+00
  0.00000000E+00  0.00000000E+00  0.00000000E+00
  0.00000000E+00  0.00000000E+00  0.00000000E+00
  0.00000000E+00  0.00000000E+00  0.00000000E+00
  0.00000000E+00  0.00000000E+00  0.00000000E+00
  0.00000000E+00  0.00000000E+00  0.00000000E+00
  0.00000000E+00  0.00000000E+00  0.00000000E+00
  0.00000000E+00  0.00000000E+00  0.00000000E+00
  0.00000000E+00  0.00000000E+00  0.00000000E+00
  0.00000000E+00  0.00000000E+00  0.00000000E+00
  0.00000000E+00  0.00000000E+00  0.00000000E+00
  0.00000000E+00  0.00000000E+00  0.00000000E+00
  0.00000000E+00  0.00000000E+00  0.00000000E+00
  0.00000000E+00  0.00000000E+00  0.00000000E+00
  0.00000000E+00  0.00000000E+00  0.00000000E+00
  0.00000000E+00  0.00000000E+00  0.00000000E+00
  0.00000000E+00  0.00000000E+00  0.00000000E+00
  0.00000000E+00  0.00000000E+00  0.00000000E+00
  0.00000000E+00  0.00000000E+00  0.00000000E+00
  0.00000000E+00  0.00000000E+00  0.00000000E+00
  0.00000000E+00  0.00000000E+00  0.00000000E+00
  0.00000000E+00  0.00000000E+00  0.00000000E+00
  0.00000000E+00  0.00000000E+00  0.00000000E+00
  0.00000000E+00  0.00000000E+00  0.00000000E+00
  0.00000000E+00  0.00000000E+00  0.00000000E+00
  0.00000000E+00  0.00000000E+00  0.00000000E+00
  0.00000000E+00  0.00000000E+00  0.00000000E+00
  0.00000000E+00  0.00000000E+00  0.00000000E+00
  0.00000000E+00  0.00000000E+00  0.00000000E+00
  0.00000000E+00  0.00000000E+00  0.00000000E+00
  0.00000000E+00  0.00000000E+00  0.00000000E+00
  0.00000000E+00  0.00000000E+00  0.00000000E+00
  0.00000000E+00  0.00000000E+00  0.00000000E+00
  0.00000000E+00  0.00000000E+00  0.00000000E+00
  0.00000000E+00  0.00000000E+00  0.00000000E+00
  0.00000000E+00  0.00000000E+00  0.00000000E+00
  0.00000000E+00  0.00000000E+00  0.00000000E+00
  0.00000000E+00  0.00000000E+00  0.00000000E+00
  0.00000000E+00  0.00000000E+00  0.00000000E+00
  0.00000000E+00  0.00000000E+00  0.00000000E+00
  0.00000000E+00  0.00000000E+00  0.00000000E+00
  0.00000000E+00  0.00000000E+00  0.00000000E+00
  0.00000000E+00  0.00000000E+00  0.00000000E+00
  0.00000000E+00  0.00000000E+00  0.00000000E+00
  0.00000000E+00  0.00000000E+00  0.00000000E+00
  0.00000000E+00  0.00000000E+00  0.00000000E+00
  0.00000000E+00  0.00000000E+00  0.00000000E+00
  0.00000000E+00  0.00000000E+00  0.00000000E+00
  0.00000000E+00  0.00000000E+00  0.00000000E+00
  0.00000000E+00  0.00000000E+00  0.00000000E+00
  0.00000000E+00  0.00000000E+00  0.00000000E+00
  0.00000000E+00  0.00000000E+00  0.00000000E+00
  0.00000000E+00  0.00000000E+00  0.00000000E+00
  0.00000000E+00  0.00000000E+00  0.00000000E+00
  0.00000000E+00  0.00000000E+00  0.00000000E+00
  0.00000000E+00  0.00000000E+00  0.00000000E+00
  0.00000000E+00  0.00000000E+00  0.00000000E+00
  0.00000000E+00  0.00000000E+00  0.00000000E+00
  0.00000000E+00  0.00000000E+00  0.00000000E+00
  0.00000000E+00  0.00000000E+00  0.00000000E+00
  0.00000000E+00  0.00000000E+00  0.00000000E+00
  0.00000000E+00  0.00000000E+00  0.00000000E+00
  0.00000000E+00  0.00000000E+00  0.00000000E+00
  0.00000000E+00  0.00000000E+00  0.00000000E+00
  0.00000000E+00  0.00000000E+00  0.00000000E+00
  0.00000000E+00  0.00000000E+00  0.00000000E+00
  0.00000000E+00  0.00000000E+00  0.00000000E+00
  0.00000000E+00  0.00000000E+00  0.00000000E+00
  0.00000000E+00  0.00000000E+00  0.00000000E+00
  0.00000000E+00  0.00000000E+00  0.00000000E+00
  0.00000000E+00  0.00000000E+00  0.00000000E+00
  0.00000000E+00  0.00000000E+00  0.00000000E+00
  0.00000000E+00  0.00000000E+00  0.00000000E+00
  0.00000000E+00  0.00000000E+00  0.00000000E+00
  0.00000000E+00  0.00000000E+00  0.00000000E+00
