661_S8                                  
   1.00000000000000     
    19.1044006348000011    0.0000000000000000    0.0000000000000000
    -9.5522003174000005   16.5448962737999992    0.0000000000000000
     0.0000000000000000    0.0000000000000000   18.1270999908000014
   Mo   S 
    36    78
Direct
 -0.0002151730913844 -0.0014641201700042  0.4985337122561027
 -0.0001678354029579  0.1652223449790856  0.4984492884303854
 -0.0001448294089107  0.3319073855819500  0.4984741865086274
 -0.0001096099255011  0.4986024771696450  0.4985769540695818
 -0.0001447054234157  0.6652308191258437  0.4986560837252422
 -0.0002172374056303  0.8318616173178882  0.4986309198191656
  0.1664611378031037 -0.0014522105549257  0.4984942015035317
  0.1664993500865350  0.1652318277593732  0.4982988352350824
  0.1665334846936940  0.3318996905191777  0.4981457713818421
  0.1665302471206443  0.4985709096198609  0.4983193447236368
  0.1665865572922180  0.6652356455081457  0.4986229422120745
  0.1665196290401931  0.8319034911783850  0.4986281428670112
  0.3331682050397679 -0.0014581793832596  0.4984345104315128
  0.3331679079091619  0.1652141962522158  0.4981354519595269
  0.3331663165282993  0.3318472783090112  0.4977787479874449
  0.3332045121898228  0.4984963744511667  0.4980993887980240
  0.3332821157286153  0.6651603482075266  0.4984390492014376
  0.3332215310862510  0.8318663785835444  0.4985592367920216
  0.4998373785551870 -0.0014889951422007  0.4984022017732917
  0.4998438782638779  0.1651772523728929  0.4981891924369942
  0.4998300491089324  0.3317980837818985  0.4976859666785885
  0.4997298678461846  0.4982798478916441  0.4971103049888802
  0.4999188090267374  0.6651669128356930  0.4979337796178155
  0.4998883463090494  0.8318774424126624  0.4982372199907782
  0.6664815773982903 -0.0015064281652798  0.4983557060844801
  0.6665132543699271  0.1652126794738074  0.4983806775591232
  0.6664938163075677  0.3318998672716987  0.4982133767458494
  0.6664646433043728  0.4984956117707444  0.4978735388015305
  0.6664137480552045  0.6651361287378617  0.4978398761139762
  0.6664582176735371  0.8317859942227200  0.4981451078036282
  0.8331242482775375 -0.0014928305051140  0.4984674132500095
  0.8331713524231783  0.1652071636682230  0.4984968996062060
  0.8331875773081482  0.3319152388897790  0.4985037391183411
  0.8331754427824788  0.4985708235811954  0.4984523333797294
  0.8330878559040336  0.6651649052265697  0.4984617019212380
  0.8330601509358410  0.8318037710572102  0.4984782789956995
  0.1109958446631293  0.0542454850658195  0.5843190409607201
  0.1110955487152119  0.2209238857632946  0.5841826370829717
  0.1111096747304278  0.3874681732818140  0.5842115061277049
  0.1110732002361058  0.5540734603434228  0.5843989763598914
  0.1110137846508380  0.7207883904144734  0.5845182080057345
  0.1109383829684344  0.8874959402397230  0.5844683404869614
  0.2777063529287379  0.0542876264394070  0.5842336287834309
  0.2778276619856257  0.2210144329099006  0.5840056204766049
  0.2777307593969360  0.3873275614164151  0.5839043677664097
  0.2776558392625789  0.5539257945707440  0.5841390628001166
  0.2778087258190238  0.7207284089187225  0.5844675523995478
  0.2777152688269879  0.8875162864560142  0.5844271758733103
  0.4443510298335944  0.0541929560121382  0.5842182884225495
  0.4443602341206370  0.2209550968872125  0.5838912288561735
  0.4444941001750342  0.3876701209330176  0.5831212835207359
  0.4447439950813872  0.5538134319674139  0.5831833421820235
  0.4446689038443610  0.7207094740735761  0.5839711930493068
  0.4444158119757265  0.8873880565858173  0.5843264827318901
  0.6109593184887763  0.0540838400212037  0.5842408655069943
  0.6108943091789072  0.2208260104698832  0.5841323145292414
  0.6107180357943754  0.3874835929664502  0.5838991052011812
  0.6103735987467759  0.5537931224133961  0.5830861960788344
  0.6109682769992182  0.7205869535693440  0.5838585667012207
  0.6109222688336273  0.8872729346946047  0.5841739569035949
  0.7775211099561832  0.0540260285206193  0.5843217839822648
  0.7775627433826634  0.2207552242653257  0.5843580409730793
  0.7774767709158578  0.3874255731388380  0.5842774859035106
  0.7772426950569117  0.5539411381422232  0.5841990542452444
  0.7771186529057277  0.7204589209184488  0.5842468337825606
  0.7773779340170973  0.8872742937077277  0.5842906238013152
  0.9442351612461934  0.0541173783722016  0.5843660209149759
  0.9443133201242979  0.2207854727596885  0.5843727064852274
  0.9443032093634340  0.3874419362862792  0.5844186285339089
  0.9442163026786350  0.5540633763905731  0.5844489698014695
  0.9441136533991116  0.7206933942083138  0.5844777329064905
  0.9441248722209925  0.8873934770401509  0.5844446348191055
  0.1108208433313608  0.0539809031156933  0.4125672011560258
  0.1108187999584449  0.2206784438730881  0.4124096422149512
  0.1108432525175960  0.3874761196319774  0.4124443556655171
  0.1109592878167636  0.5542237935324676  0.4126270200681570
  0.1109827678514435  0.7207962748027091  0.4127731012713637
  0.1108626613420435  0.8873546346697212  0.4127166211344310
  0.2774607930113503  0.0539054344302754  0.4124759846685776
  0.2773977846552844  0.2205193845401502  0.4122030527715637
  0.2774970233093628  0.3874593053099807  0.4120976764562476
  0.2776000324658786  0.5541800361068570  0.4124104749996219
  0.2776477277353758  0.7207677250309789  0.4127210393299475
  0.2775596737199050  0.8873477263187676  0.4126768554671106
  0.4442043676684492  0.0539312754634751  0.4124632962782280
  0.4442074330111788  0.2204746046432991  0.4121086106475767
  0.4440697209277298  0.3870152591336603  0.4114814804076404
  0.4440718061437395  0.5541747560594478  0.4117582608290317
  0.4442101683248913  0.7207805258269444  0.4123122019788336
  0.4442011036790735  0.8874105433489953  0.4125301291502664
  0.6109376770944517  0.0540789677769275  0.4125013978768348
  0.6110321695862464  0.2207257581632708  0.4123784705420053
  0.6111079209593504  0.3873613397165274  0.4120309369978453
  0.6112105000967091  0.5541675107723608  0.4116312030813692
  0.6110107841154958  0.7208543519799959  0.4120072502365345
  0.6109378101404219  0.8874625936128255  0.4123581267320595
  0.7776536802272241  0.0541225851026549  0.4125586814190272
  0.7776992216564245  0.2208140471663237  0.4126222489030665
  0.7777560249359536  0.3875036281533745  0.4125295156330161
  0.7778850274675229  0.5542233835819065  0.4123787765546990
  0.7778577949687617  0.7208790052763839  0.4124210799049824
  0.7777030533448073  0.8874802747966983  0.4124995366831604
  0.9442463369991164  0.0540637619927864  0.4126098026794619
  0.9442724072408850  0.2207758910841604  0.4126074407898311
  0.9443257989890124  0.3875387612531854  0.4126538384717532
  0.9444059045922637  0.5542117660322172  0.4126973460589363
  0.9443549254732201  0.7207843533720615  0.4127437883204412
  0.9442514737753768  0.8873989855375261  0.4127025229371825
  0.4098865050449227  0.6116771127764492  0.7477500166247261
  0.5316691415408087  0.6453522679500712  0.7755807073895541
  0.4465936846998983  0.4662623515592896  0.7526464108265500
  0.5690666554747348  0.4996053816370083  0.7812299590464747
  0.3518272955815031  0.4948763490804523  0.7667707917810466
  0.6269537882907861  0.6162658317863141  0.7627576062895192
 
  0.00000000E+00  0.00000000E+00  0.00000000E+00
  0.00000000E+00  0.00000000E+00  0.00000000E+00
  0.00000000E+00  0.00000000E+00  0.00000000E+00
  0.00000000E+00  0.00000000E+00  0.00000000E+00
  0.00000000E+00  0.00000000E+00  0.00000000E+00
  0.00000000E+00  0.00000000E+00  0.00000000E+00
  0.00000000E+00  0.00000000E+00  0.00000000E+00
  0.00000000E+00  0.00000000E+00  0.00000000E+00
  0.00000000E+00  0.00000000E+00  0.00000000E+00
  0.00000000E+00  0.00000000E+00  0.00000000E+00
  0.00000000E+00  0.00000000E+00  0.00000000E+00
  0.00000000E+00  0.00000000E+00  0.00000000E+00
  0.00000000E+00  0.00000000E+00  0.00000000E+00
  0.00000000E+00  0.00000000E+00  0.00000000E+00
  0.00000000E+00  0.00000000E+00  0.00000000E+00
  0.00000000E+00  0.00000000E+00  0.00000000E+00
  0.00000000E+00  0.00000000E+00  0.00000000E+00
  0.00000000E+00  0.00000000E+00  0.00000000E+00
  0.00000000E+00  0.00000000E+00  0.00000000E+00
  0.00000000E+00  0.00000000E+00  0.00000000E+00
  0.00000000E+00  0.00000000E+00  0.00000000E+00
  0.00000000E+00  0.00000000E+00  0.00000000E+00
  0.00000000E+00  0.00000000E+00  0.00000000E+00
  0.00000000E+00  0.00000000E+00  0.00000000E+00
  0.00000000E+00  0.00000000E+00  0.00000000E+00
  0.00000000E+00  0.00000000E+00  0.00000000E+00
  0.00000000E+00  0.00000000E+00  0.00000000E+00
  0.00000000E+00  0.00000000E+00  0.00000000E+00
  0.00000000E+00  0.00000000E+00  0.00000000E+00
  0.00000000E+00  0.00000000E+00  0.00000000E+00
  0.00000000E+00  0.00000000E+00  0.00000000E+00
  0.00000000E+00  0.00000000E+00  0.00000000E+00
  0.00000000E+00  0.00000000E+00  0.00000000E+00
  0.00000000E+00  0.00000000E+00  0.00000000E+00
  0.00000000E+00  0.00000000E+00  0.00000000E+00
  0.00000000E+00  0.00000000E+00  0.00000000E+00
  0.00000000E+00  0.00000000E+00  0.00000000E+00
  0.00000000E+00  0.00000000E+00  0.00000000E+00
  0.00000000E+00  0.00000000E+00  0.00000000E+00
  0.00000000E+00  0.00000000E+00  0.00000000E+00
  0.00000000E+00  0.00000000E+00  0.00000000E+00
  0.00000000E+00  0.00000000E+00  0.00000000E+00
  0.00000000E+00  0.00000000E+00  0.00000000E+00
  0.00000000E+00  0.00000000E+00  0.00000000E+00
  0.00000000E+00  0.00000000E+00  0.00000000E+00
  0.00000000E+00  0.00000000E+00  0.00000000E+00
  0.00000000E+00  0.00000000E+00  0.00000000E+00
  0.00000000E+00  0.00000000E+00  0.00000000E+00
  0.00000000E+00  0.00000000E+00  0.00000000E+00
  0.00000000E+00  0.00000000E+00  0.00000000E+00
  0.00000000E+00  0.00000000E+00  0.00000000E+00
  0.00000000E+00  0.00000000E+00  0.00000000E+00
  0.00000000E+00  0.00000000E+00  0.00000000E+00
  0.00000000E+00  0.00000000E+00  0.00000000E+00
  0.00000000E+00  0.00000000E+00  0.00000000E+00
  0.00000000E+00  0.00000000E+00  0.00000000E+00
  0.00000000E+00  0.00000000E+00  0.00000000E+00
  0.00000000E+00  0.00000000E+00  0.00000000E+00
  0.00000000E+00  0.00000000E+00  0.00000000E+00
  0.00000000E+00  0.00000000E+00  0.00000000E+00
  0.00000000E+00  0.00000000E+00  0.00000000E+00
  0.00000000E+00  0.00000000E+00  0.00000000E+00
  0.00000000E+00  0.00000000E+00  0.00000000E+00
  0.00000000E+00  0.00000000E+00  0.00000000E+00
  0.00000000E+00  0.00000000E+00  0.00000000E+00
  0.00000000E+00  0.00000000E+00  0.00000000E+00
  0.00000000E+00  0.00000000E+00  0.00000000E+00
  0.00000000E+00  0.00000000E+00  0.00000000E+00
  0.00000000E+00  0.00000000E+00  0.00000000E+00
  0.00000000E+00  0.00000000E+00  0.00000000E+00
  0.00000000E+00  0.00000000E+00  0.00000000E+00
  0.00000000E+00  0.00000000E+00  0.00000000E+00
  0.00000000E+00  0.00000000E+00  0.00000000E+00
  0.00000000E+00  0.00000000E+00  0.00000000E+00
  0.00000000E+00  0.00000000E+00  0.00000000E+00
  0.00000000E+00  0.00000000E+00  0.00000000E+00
  0.00000000E+00  0.00000000E+00  0.00000000E+00
  0.00000000E+00  0.00000000E+00  0.00000000E+00
  0.00000000E+00  0.00000000E+00  0.00000000E+00
  0.00000000E+00  0.00000000E+00  0.00000000E+00
  0.00000000E+00  0.00000000E+00  0.00000000E+00
  0.00000000E+00  0.00000000E+00  0.00000000E+00
  0.00000000E+00  0.00000000E+00  0.00000000E+00
  0.00000000E+00  0.00000000E+00  0.00000000E+00
  0.00000000E+00  0.00000000E+00  0.00000000E+00
  0.00000000E+00  0.00000000E+00  0.00000000E+00
  0.00000000E+00  0.00000000E+00  0.00000000E+00
  0.00000000E+00  0.00000000E+00  0.00000000E+00
  0.00000000E+00  0.00000000E+00  0.00000000E+00
  0.00000000E+00  0.00000000E+00  0.00000000E+00
  0.00000000E+00  0.00000000E+00  0.00000000E+00
  0.00000000E+00  0.00000000E+00  0.00000000E+00
  0.00000000E+00  0.00000000E+00  0.00000000E+00
  0.00000000E+00  0.00000000E+00  0.00000000E+00
  0.00000000E+00  0.00000000E+00  0.00000000E+00
  0.00000000E+00  0.00000000E+00  0.00000000E+00
  0.00000000E+00  0.00000000E+00  0.00000000E+00
  0.00000000E+00  0.00000000E+00  0.00000000E+00
  0.00000000E+00  0.00000000E+00  0.00000000E+00
  0.00000000E+00  0.00000000E+00  0.00000000E+00
  0.00000000E+00  0.00000000E+00  0.00000000E+00
  0.00000000E+00  0.00000000E+00  0.00000000E+00
  0.00000000E+00  0.00000000E+00  0.00000000E+00
  0.00000000E+00  0.00000000E+00  0.00000000E+00
  0.00000000E+00  0.00000000E+00  0.00000000E+00
  0.00000000E+00  0.00000000E+00  0.00000000E+00
  0.00000000E+00  0.00000000E+00  0.00000000E+00
  0.00000000E+00  0.00000000E+00  0.00000000E+00
  0.00000000E+00  0.00000000E+00  0.00000000E+00
  0.00000000E+00  0.00000000E+00  0.00000000E+00
  0.00000000E+00  0.00000000E+00  0.00000000E+00
  0.00000000E+00  0.00000000E+00  0.00000000E+00
  0.00000000E+00  0.00000000E+00  0.00000000E+00
  0.00000000E+00  0.00000000E+00  0.00000000E+00
