Li2S                                    
   1.00000000000000     
    30.0000000000000000    0.0000000000000000    0.0000000000000000
     0.0000000000000000   30.0000000000000000    0.0000000000000000
     0.0000000000000000    0.0000000000000000   20.0000000000000000
   Li
     1
Direct
  0.4983500000000021  0.5578900000000004  0.7194199999999995
 
  0.00000000E+00  0.00000000E+00  0.00000000E+00


