Li2S                                    
   1.00000000000000     
    30.0000000000000000    0.0000000000000000    0.0000000000000000
     0.0000000000000000   30.0000000000000000    0.0000000000000000
     0.0000000000000000    0.0000000000000000   20.0000000000000000
   Li   S 
     2     1
Direct
  0.4983187267999664  0.4358390905586050  0.7296151369707972
  0.4983535484840926  0.5578919872182376  0.7194215799919511
  0.4998677247159370  0.4950199222231580  0.6743522830372476
 
  0.00000000E+00  0.00000000E+00  0.00000000E+00
  0.00000000E+00  0.00000000E+00  0.00000000E+00
  0.00000000E+00  0.00000000E+00  0.00000000E+00


