661_Li2S6                               
   1.00000000000000     
    19.1044006348000011    0.0000000000000000    0.0000000000000000
    -9.5522003174000005   16.5448962737999992    0.0000000000000000
     0.0000000000000000    0.0000000000000000   18.1270999908000014
   Mo   S    Li
    36    78     1
Direct
  0.0022524571154791  0.0002554413330064  0.4993786536454496
  0.0022429685518208  0.1669300849913954  0.4994114473645134
  0.0022609890616260  0.3335821340048226  0.4994436342576115
  0.0022933071745243  0.5002508459711967  0.4994742733714799
  0.0022793779956093  0.6669163788176692  0.4994558330813658
  0.0022872147327430  0.8336083467368374  0.4994154415193990
  0.1689881348568050  0.0003276928493924  0.4992956765859035
  0.1688766162203908  0.1668647332989912  0.4990090472373715
  0.1689027991840851  0.3335753345280131  0.4992032136398126
  0.1689753836477978  0.5002250776349347  0.4994614410779568
  0.1689901049664350  0.6669045445179911  0.4996323837986623
  0.1689873361600014  0.8336238918036915  0.4995398169666216
  0.3356869051843420  0.0003274958945310  0.4993584966946286
  0.3357165172347368  0.1671069820464190  0.4987610661819691
  0.3348883862012057  0.3331588640333286  0.4980612199529501
  0.3357393521472939  0.5002590920731453  0.4989645785651963
  0.3356932366143908  0.6669427843537673  0.4995493019528022
  0.3356580793413312  0.8336061556432864  0.4996406435913251
  0.5023034043781049  0.0002661847414774  0.4995314826018727
  0.5023021416975958  0.1668795475162392  0.4990812105673957
  0.5028545191066405  0.3332675251232071  0.4984299441582245
  0.5026277637630371  0.5009936368009619  0.4982988205038755
  0.5022948910281784  0.6669406410907180  0.4993570390427171
  0.5023213837425826  0.8336154186009357  0.4996435682882249
  0.6689242295604397  0.0002568291368383  0.4996178781347030
  0.6689446846580623  0.1669111429960942  0.4993848975439126
  0.6690037525813979  0.3336291848769287  0.4988857448011438
  0.6688405393948398  0.5000975671201719  0.4985304651501319
  0.6690172878235889  0.6670015966955311  0.4991810521993604
  0.6689370182457872  0.8335921567845739  0.4995678322404638
  0.8355886081432142  0.0002764781652766  0.4995324406282661
  0.8355927631543862  0.1669350148249009  0.4995214249119198
  0.8356070251421157  0.3335671670433197  0.4993494114244590
  0.8355928405572683  0.5002249270144924  0.4991594108505175
  0.8355629717758778  0.6669116889673381  0.4992340486465222
  0.8356045262914524  0.8336033139695317  0.4994499672917620
  0.1134916806131340  0.0559489844504947  0.5851425425592365
  0.1134997971976330  0.2224549376173836  0.5851322519653068
  0.1134409125107265  0.3890655610737823  0.5852618557462927
  0.1133739990908616  0.5556944387517880  0.5854223348694813
  0.1133518439547794  0.7224643754032870  0.5854249023470995
  0.1134462564071494  0.8893069966559207  0.5852971582921674
  0.2802822770745184  0.0562725063035905  0.5850373425396065
  0.2801290127233529  0.2226437290175062  0.5846144255649379
  0.2802959753475973  0.3889933448456013  0.5847737700578947
  0.2802478502966141  0.5556406756374301  0.5852045830323056
  0.2801291383266079  0.7224446241321961  0.5855197023470761
  0.2801454840623912  0.8893314153316954  0.5853894953895615
  0.4467783241075195  0.0560114242221232  0.5852484139981556
  0.4468839797555039  0.2226273633173823  0.5846852735805882
  0.4467263249916898  0.3890523381112161  0.5822490283900073
  0.4468396181377585  0.5556202225435667  0.5849126229127950
  0.4468026781013913  0.7223945669736905  0.5854454087843780
  0.4467887894284031  0.8892174209217604  0.5855130105384954
  0.6133852300201401  0.0559198370936546  0.5854396335772264
  0.6133767556638741  0.2226618676627138  0.5850805133638852
  0.6134702591180087  0.3891975595184087  0.5845795892776913
  0.6133335836025320  0.5556132291392581  0.5846028889624926
  0.6134033625750526  0.7223079049830387  0.5853513565365833
  0.6134250707306734  0.8891301268274782  0.5855404075694667
  0.7800639729835154  0.0558703580831241  0.5854464911148648
  0.7799967170597171  0.2225387259034463  0.5853380716279836
  0.7798828248495138  0.3891371920072012  0.5850466983991909
  0.7796491308198847  0.5555646218676961  0.5848673954091445
  0.7799891464844085  0.7223555725532486  0.5852278127457132
  0.7800726115124739  0.8891302491094732  0.5854212110531825
  0.9467863067131232  0.0558587924398142  0.5853230207822486
  0.9467442437852143  0.2225044520751704  0.5853732200367496
  0.9466509128826867  0.3891140282216048  0.5853086666910238
  0.9465321033303442  0.5557207744394917  0.5852496127670310
  0.9465911524286272  0.7224191852457663  0.5852430652079404
  0.9467522798543690  0.8891712176582206  0.5852957240044444
  0.1132015777017489  0.0555951578843563  0.4133539399263233
  0.1131518822385813  0.2224409232800663  0.4133385879219890
  0.1132844699933897  0.3892090722463215  0.4134905208369341
  0.1134521358106746  0.5558632984062012  0.4136651024434734
  0.1134940143387260  0.7224818931597738  0.4137069940139186
  0.1134098561049857  0.8890902534233428  0.4135541781782276
  0.2800216958309579  0.0556346426859389  0.4132939552917607
  0.2796054962064979  0.2219864666240602  0.4126415939179638
  0.2796313567585803  0.3892567568955320  0.4127986133235582
  0.2800006987473205  0.5559864470354102  0.4134871791021732
  0.2800945828478920  0.7225174639131277  0.4137691749235351
  0.2800772403063085  0.8890482029866980  0.4136402366246297
  0.4467459853528080  0.0556047783513259  0.4134229081697568
  0.4468078856344052  0.2221101191405180  0.4127546265321795
  0.4468655651016757  0.3891494434410657  0.4127000766619274
  0.4467252942760943  0.5563310894048066  0.4128534337646737
  0.4467657593269935  0.7226653236267199  0.4136365527722765
  0.4467376229633870  0.8891139013751080  0.4137415246237596
  0.6133793021942628  0.0557030998986569  0.4136452320397989
  0.6134620254692960  0.2222931261851229  0.4132525339813723
  0.6137628456959692  0.3890773353015068  0.4125015769565402
  0.6137946082327278  0.5563206201447226  0.4127329638639921
  0.6134219776037664  0.7226947990197345  0.4135092769181467
  0.6133853212247471  0.8891842880812584  0.4137344479338411
  0.7799713894118802  0.0558012444291702  0.4136765273926168
  0.7800727322232085  0.2223981927270082  0.4135545856989455
  0.7802789454424833  0.3891250655477477  0.4132318608132148
  0.7803142718822569  0.5559456491211499  0.4131014390641785
  0.7801852460254796  0.7226725695540198  0.4134101607686799
  0.7800158192259653  0.8892029083056479  0.4136486495845480
  0.9466240760924423  0.0557934511853117  0.4135604001279211
  0.9466240865817924  0.2224533115957993  0.4135772054285535
  0.9467772692996316  0.3891810895931769  0.4135432411105774
  0.9469042317143119  0.5558782313034054  0.4134896837308910
  0.9468071679406855  0.7225276508922599  0.4135017089431310
  0.9466807281991597  0.8891172730098497  0.4135273722980513
  0.5382141806239347  0.5227875409635188  0.7607396733013436
  0.4008028500287988  0.2678056197533640  0.7637375231519641
  0.3506189367428661  0.4015446636264432  0.8201132999962686
  0.5208544645614160  0.3446355889864048  0.7607548872913256
  0.4645494983219198  0.5041194350276428  0.8461207021966756
  0.3527867550126411  0.3005874730867752  0.8550598593973838
  0.4402290267302824  0.3989380166398314  0.7117236784681203
 
  0.00000000E+00  0.00000000E+00  0.00000000E+00
  0.00000000E+00  0.00000000E+00  0.00000000E+00
  0.00000000E+00  0.00000000E+00  0.00000000E+00
  0.00000000E+00  0.00000000E+00  0.00000000E+00
  0.00000000E+00  0.00000000E+00  0.00000000E+00
  0.00000000E+00  0.00000000E+00  0.00000000E+00
  0.00000000E+00  0.00000000E+00  0.00000000E+00
  0.00000000E+00  0.00000000E+00  0.00000000E+00
  0.00000000E+00  0.00000000E+00  0.00000000E+00
  0.00000000E+00  0.00000000E+00  0.00000000E+00
  0.00000000E+00  0.00000000E+00  0.00000000E+00
  0.00000000E+00  0.00000000E+00  0.00000000E+00
  0.00000000E+00  0.00000000E+00  0.00000000E+00
  0.00000000E+00  0.00000000E+00  0.00000000E+00
  0.00000000E+00  0.00000000E+00  0.00000000E+00
  0.00000000E+00  0.00000000E+00  0.00000000E+00
  0.00000000E+00  0.00000000E+00  0.00000000E+00
  0.00000000E+00  0.00000000E+00  0.00000000E+00
  0.00000000E+00  0.00000000E+00  0.00000000E+00
  0.00000000E+00  0.00000000E+00  0.00000000E+00
  0.00000000E+00  0.00000000E+00  0.00000000E+00
  0.00000000E+00  0.00000000E+00  0.00000000E+00
  0.00000000E+00  0.00000000E+00  0.00000000E+00
  0.00000000E+00  0.00000000E+00  0.00000000E+00
  0.00000000E+00  0.00000000E+00  0.00000000E+00
  0.00000000E+00  0.00000000E+00  0.00000000E+00
  0.00000000E+00  0.00000000E+00  0.00000000E+00
  0.00000000E+00  0.00000000E+00  0.00000000E+00
  0.00000000E+00  0.00000000E+00  0.00000000E+00
  0.00000000E+00  0.00000000E+00  0.00000000E+00
  0.00000000E+00  0.00000000E+00  0.00000000E+00
  0.00000000E+00  0.00000000E+00  0.00000000E+00
  0.00000000E+00  0.00000000E+00  0.00000000E+00
  0.00000000E+00  0.00000000E+00  0.00000000E+00
  0.00000000E+00  0.00000000E+00  0.00000000E+00
  0.00000000E+00  0.00000000E+00  0.00000000E+00
  0.00000000E+00  0.00000000E+00  0.00000000E+00
  0.00000000E+00  0.00000000E+00  0.00000000E+00
  0.00000000E+00  0.00000000E+00  0.00000000E+00
  0.00000000E+00  0.00000000E+00  0.00000000E+00
  0.00000000E+00  0.00000000E+00  0.00000000E+00
  0.00000000E+00  0.00000000E+00  0.00000000E+00
  0.00000000E+00  0.00000000E+00  0.00000000E+00
  0.00000000E+00  0.00000000E+00  0.00000000E+00
  0.00000000E+00  0.00000000E+00  0.00000000E+00
  0.00000000E+00  0.00000000E+00  0.00000000E+00
  0.00000000E+00  0.00000000E+00  0.00000000E+00
  0.00000000E+00  0.00000000E+00  0.00000000E+00
  0.00000000E+00  0.00000000E+00  0.00000000E+00
  0.00000000E+00  0.00000000E+00  0.00000000E+00
  0.00000000E+00  0.00000000E+00  0.00000000E+00
  0.00000000E+00  0.00000000E+00  0.00000000E+00
  0.00000000E+00  0.00000000E+00  0.00000000E+00
  0.00000000E+00  0.00000000E+00  0.00000000E+00
  0.00000000E+00  0.00000000E+00  0.00000000E+00
  0.00000000E+00  0.00000000E+00  0.00000000E+00
  0.00000000E+00  0.00000000E+00  0.00000000E+00
  0.00000000E+00  0.00000000E+00  0.00000000E+00
  0.00000000E+00  0.00000000E+00  0.00000000E+00
  0.00000000E+00  0.00000000E+00  0.00000000E+00
  0.00000000E+00  0.00000000E+00  0.00000000E+00
  0.00000000E+00  0.00000000E+00  0.00000000E+00
  0.00000000E+00  0.00000000E+00  0.00000000E+00
  0.00000000E+00  0.00000000E+00  0.00000000E+00
  0.00000000E+00  0.00000000E+00  0.00000000E+00
  0.00000000E+00  0.00000000E+00  0.00000000E+00
  0.00000000E+00  0.00000000E+00  0.00000000E+00
  0.00000000E+00  0.00000000E+00  0.00000000E+00
  0.00000000E+00  0.00000000E+00  0.00000000E+00
  0.00000000E+00  0.00000000E+00  0.00000000E+00
  0.00000000E+00  0.00000000E+00  0.00000000E+00
  0.00000000E+00  0.00000000E+00  0.00000000E+00
  0.00000000E+00  0.00000000E+00  0.00000000E+00
  0.00000000E+00  0.00000000E+00  0.00000000E+00
  0.00000000E+00  0.00000000E+00  0.00000000E+00
  0.00000000E+00  0.00000000E+00  0.00000000E+00
  0.00000000E+00  0.00000000E+00  0.00000000E+00
  0.00000000E+00  0.00000000E+00  0.00000000E+00
  0.00000000E+00  0.00000000E+00  0.00000000E+00
  0.00000000E+00  0.00000000E+00  0.00000000E+00
  0.00000000E+00  0.00000000E+00  0.00000000E+00
  0.00000000E+00  0.00000000E+00  0.00000000E+00
  0.00000000E+00  0.00000000E+00  0.00000000E+00
  0.00000000E+00  0.00000000E+00  0.00000000E+00
  0.00000000E+00  0.00000000E+00  0.00000000E+00
  0.00000000E+00  0.00000000E+00  0.00000000E+00
  0.00000000E+00  0.00000000E+00  0.00000000E+00
  0.00000000E+00  0.00000000E+00  0.00000000E+00
  0.00000000E+00  0.00000000E+00  0.00000000E+00
  0.00000000E+00  0.00000000E+00  0.00000000E+00
  0.00000000E+00  0.00000000E+00  0.00000000E+00
  0.00000000E+00  0.00000000E+00  0.00000000E+00
  0.00000000E+00  0.00000000E+00  0.00000000E+00
  0.00000000E+00  0.00000000E+00  0.00000000E+00
  0.00000000E+00  0.00000000E+00  0.00000000E+00
  0.00000000E+00  0.00000000E+00  0.00000000E+00
  0.00000000E+00  0.00000000E+00  0.00000000E+00
  0.00000000E+00  0.00000000E+00  0.00000000E+00
  0.00000000E+00  0.00000000E+00  0.00000000E+00
  0.00000000E+00  0.00000000E+00  0.00000000E+00
  0.00000000E+00  0.00000000E+00  0.00000000E+00
  0.00000000E+00  0.00000000E+00  0.00000000E+00
  0.00000000E+00  0.00000000E+00  0.00000000E+00
  0.00000000E+00  0.00000000E+00  0.00000000E+00
  0.00000000E+00  0.00000000E+00  0.00000000E+00
  0.00000000E+00  0.00000000E+00  0.00000000E+00
  0.00000000E+00  0.00000000E+00  0.00000000E+00
  0.00000000E+00  0.00000000E+00  0.00000000E+00
  0.00000000E+00  0.00000000E+00  0.00000000E+00
  0.00000000E+00  0.00000000E+00  0.00000000E+00
  0.00000000E+00  0.00000000E+00  0.00000000E+00
  0.00000000E+00  0.00000000E+00  0.00000000E+00
  0.00000000E+00  0.00000000E+00  0.00000000E+00
  0.00000000E+00  0.00000000E+00  0.00000000E+00
  0.00000000E+00  0.00000000E+00  0.00000000E+00
