Autosave\of\661                         
   1.00000000000000     
    19.1044006348000011    0.0000000000000000    0.0000000000000000
    -9.5522003174000005   16.5448962737999992    0.0000000000000000
     0.0000000000000000    0.0000000000000000   18.1270999908000014
   Mo   S    Li
    36    73     2
Direct
 -0.0006258046768146 -0.0010560573835617  0.5004505324419515
 -0.0007353289464701  0.1655974110834700  0.5000852188330651
 -0.0004941639617241  0.3323958181485906  0.4997704192656581
 -0.0005908867165367  0.4990099419195709  0.4997915832491968
 -0.0006189840662655  0.6656993532932922  0.5000134258382047
 -0.0006270765195819  0.8323524940621851  0.5003230312472634
  0.1659955565564853 -0.0008944880951783  0.5001015762410099
  0.1652160736850058  0.1652757111286554  0.5000639738298512
  0.1658149227217678  0.3320088945692038  0.4994479967340646
  0.1661490719801212  0.4990492320283300  0.4994774432620856
  0.1660602340742722  0.6657239818296313  0.4997198393729516
  0.1660684251535138  0.8324306923290987  0.4999469867817273
  0.3327693897782147 -0.0008838101885660  0.4997903679301144
  0.3325734135504350  0.1655703563712502  0.4991684902073306
  0.3351316875604106  0.3340030624950958  0.4988400862518799
  0.3327466162886247  0.4990134656602839  0.4991319152790110
  0.3327379599273835  0.6656088797866846  0.4995039947879165
  0.3327257400666399  0.8323351417705418  0.4997556567894615
  0.4993343342222975 -0.0010434451973319  0.4998713806569778
  0.4998536696816883  0.1655629909408717  0.4996177490159671
  0.4975948098373941  0.3339482883730996  0.4986308855658683
  0.4977029012428038  0.4965518098043976  0.4987011364475091
  0.4997020943673632  0.6658862826430680  0.4995624816421279
  0.4993442854447359  0.8322088972336475  0.4998337205578275
  0.6660747511007505 -0.0010506005036777  0.5000674258796149
  0.6661459131280254  0.1655590480694526  0.4998620523577039
  0.6661174174041949  0.3317933343648362  0.4997991157403245
  0.6661644924217297  0.4992023308190631  0.4993139562258912
  0.6663545995269498  0.6663028621320999  0.5004475726271195
  0.6661185945564846  0.8324055923003688  0.5002489406217502
  0.8327245738228585 -0.0010355850416586  0.5003795961713405
  0.8327785783227322  0.1656789606183190  0.5000462808152240
  0.8327455046232746  0.3323783228208016  0.4999261187663198
  0.8326353736585000  0.4989807546835577  0.4999040645011116
  0.8326692516273722  0.6657024432582832  0.5002427312731866
  0.8327342403912706  0.8322940859820017  0.5005771047675585
  0.1105239137213261  0.0545748636791910  0.5862472890523782
  0.1103726460344360  0.2214513948277205  0.5857724943589772
  0.1108734089951432  0.3880244685403472  0.5854579989114831
  0.1106837188252974  0.5545585063820576  0.5855210681896917
  0.1106287959231068  0.7212629069259047  0.5857555621356092
  0.1106556477802451  0.8879776360923770  0.5859926440282375
  0.2774495226844933  0.0549359509061507  0.5855994478232094
  0.2775221453606015  0.2219659405807862  0.5855316094905643
  0.2776353546666813  0.3881993466958586  0.5851635181260191
  0.2773322541184284  0.5544313894404211  0.5852245553664064
  0.2772120656275824  0.7210910981790646  0.5855133379827479
  0.2772995026465099  0.8879667637188684  0.5856704807277568
  0.4438807575292238  0.0546832868382172  0.5856779805617578
  0.4442856715152711  0.2223200142511254  0.5848589383906563
  0.4434885193086198  0.3873935621868584  0.5870490923159535
  0.4435160366702577  0.5539949600430027  0.5851792023232203
  0.4437036168138100  0.7208620356461597  0.5855621644870316
  0.4437652071936369  0.8877448659017599  0.5856784082197531
  0.6104599262730528  0.0544860258008460  0.5858042685857524
  0.6106358455721038  0.2209209932000354  0.5856881805241831
  0.6094019946720500  0.3874932154503575  0.5848698278041481
  0.6095810756926174  0.5537230151585545  0.5859119689177765
  0.6101867065978820  0.7212738541744053  0.5859813408661086
  0.6102962335540634  0.8878366620966740  0.5859454234849000
  0.7771389801382630  0.0546611074065971  0.5860460116464945
  0.7772086340171561  0.2212309204508897  0.5858306565388989
  0.7770748224784509  0.3878337358171771  0.5857752693203598
  0.7768364421581258  0.5542838735848112  0.5857155663323425
  0.7772236816435949  0.7211723003941221  0.5864379314811317
  0.7770596097761908  0.8879201291802670  0.5863461048367118
  0.9438214249822862  0.0546880344432525  0.5862336523440518
  0.9439397889659471  0.2214283079362931  0.5858632791597893
  0.9439826004052401  0.3879204546778375  0.5856881168445868
  0.9438564179086897  0.5544829616505469  0.5857416753269430
  0.9438738647011534  0.7211233208204276  0.5860623260501422
  0.9439111816057079  0.8878845765092501  0.5863521357322251
  0.1101617400140596  0.0544144102045128  0.4142305511651101
  0.1100776555266380  0.2207860292891329  0.4139602946372256
  0.1104590510039793  0.3878183395868583  0.4136587721899420
  0.1104377881240352  0.5546488485332259  0.4137897693778464
  0.1104089517540669  0.7213497007584853  0.4140199556945325
  0.1103100510264168  0.8879492075403974  0.4142636756190335
  0.2769333297198491  0.0544529615371614  0.4137886271748549
  0.2769039954627150  0.2215255294865418  0.4141660310158409
  0.2771590545758052  0.3877038603730877  0.4133387041982965
  0.2771666761589882  0.5546247645647365  0.4134134812062290
  0.2771485449390723  0.7212894186920074  0.4137907931546362
  0.2771142707065629  0.8879254432529977  0.4139595150713766
  0.4438972701775249  0.0545662003299998  0.4138262524210359
  0.4439322199020470  0.2215120358111221  0.4136840209791247
  0.4434784733372321  0.3881499676431263  0.4102080352428094
  0.4441009646868105  0.5546167531142850  0.4133878270608642
  0.4439886373113034  0.7212649391660094  0.4137347637670469
  0.4438825907019476  0.8878563510912750  0.4139463870377746
  0.6105525989853184  0.0544050154862460  0.4140570356355701
  0.6107050972619965  0.2210899503423411  0.4138070089121735
  0.6102622045382784  0.3878148030640592  0.4138269378217235
  0.6102595370332783  0.5548968337932966  0.4143116998790756
  0.6110072786028706  0.7215083026740111  0.4142180685229387
  0.6106597741808834  0.8878727600113926  0.4141675972147272
  0.7772730394194486  0.0544724321714836  0.4143124259989615
  0.7772935624167306  0.2211925504594983  0.4140621449669026
  0.7771076096949285  0.3878436213678820  0.4139600082084923
  0.7773204740001977  0.5548244508486001  0.4139188390077803
  0.7771719840441342  0.7214074143503847  0.4144856734656329
  0.7773228257699907  0.8878852091043492  0.4145429526031329
  0.9437095886630126  0.0543144065981695  0.4144402405797686
  0.9437913873534408  0.2210891368406885  0.4140837044959985
  0.9437971323146161  0.3878505908473688  0.4139598557665646
  0.9438021589179763  0.5546317777789004  0.4140499494085986
  0.9437916887896676  0.7213506984190180  0.4143418892622499
  0.9437099021608800  0.8878404715791955  0.4145816090665514
  0.4531012735298930  0.3663105681831302  0.7283288304700370
  0.3709365160704158  0.2391899435405343  0.6941734884965400
  0.5800328527297512  0.4504253678665749  0.6945882029387175
 
  0.00000000E+00  0.00000000E+00  0.00000000E+00
  0.00000000E+00  0.00000000E+00  0.00000000E+00
  0.00000000E+00  0.00000000E+00  0.00000000E+00
  0.00000000E+00  0.00000000E+00  0.00000000E+00
  0.00000000E+00  0.00000000E+00  0.00000000E+00
  0.00000000E+00  0.00000000E+00  0.00000000E+00
  0.00000000E+00  0.00000000E+00  0.00000000E+00
  0.00000000E+00  0.00000000E+00  0.00000000E+00
  0.00000000E+00  0.00000000E+00  0.00000000E+00
  0.00000000E+00  0.00000000E+00  0.00000000E+00
  0.00000000E+00  0.00000000E+00  0.00000000E+00
  0.00000000E+00  0.00000000E+00  0.00000000E+00
  0.00000000E+00  0.00000000E+00  0.00000000E+00
  0.00000000E+00  0.00000000E+00  0.00000000E+00
  0.00000000E+00  0.00000000E+00  0.00000000E+00
  0.00000000E+00  0.00000000E+00  0.00000000E+00
  0.00000000E+00  0.00000000E+00  0.00000000E+00
  0.00000000E+00  0.00000000E+00  0.00000000E+00
  0.00000000E+00  0.00000000E+00  0.00000000E+00
  0.00000000E+00  0.00000000E+00  0.00000000E+00
  0.00000000E+00  0.00000000E+00  0.00000000E+00
  0.00000000E+00  0.00000000E+00  0.00000000E+00
  0.00000000E+00  0.00000000E+00  0.00000000E+00
  0.00000000E+00  0.00000000E+00  0.00000000E+00
  0.00000000E+00  0.00000000E+00  0.00000000E+00
  0.00000000E+00  0.00000000E+00  0.00000000E+00
  0.00000000E+00  0.00000000E+00  0.00000000E+00
  0.00000000E+00  0.00000000E+00  0.00000000E+00
  0.00000000E+00  0.00000000E+00  0.00000000E+00
  0.00000000E+00  0.00000000E+00  0.00000000E+00
  0.00000000E+00  0.00000000E+00  0.00000000E+00
  0.00000000E+00  0.00000000E+00  0.00000000E+00
  0.00000000E+00  0.00000000E+00  0.00000000E+00
  0.00000000E+00  0.00000000E+00  0.00000000E+00
  0.00000000E+00  0.00000000E+00  0.00000000E+00
  0.00000000E+00  0.00000000E+00  0.00000000E+00
  0.00000000E+00  0.00000000E+00  0.00000000E+00
  0.00000000E+00  0.00000000E+00  0.00000000E+00
  0.00000000E+00  0.00000000E+00  0.00000000E+00
  0.00000000E+00  0.00000000E+00  0.00000000E+00
  0.00000000E+00  0.00000000E+00  0.00000000E+00
  0.00000000E+00  0.00000000E+00  0.00000000E+00
  0.00000000E+00  0.00000000E+00  0.00000000E+00
  0.00000000E+00  0.00000000E+00  0.00000000E+00
  0.00000000E+00  0.00000000E+00  0.00000000E+00
  0.00000000E+00  0.00000000E+00  0.00000000E+00
  0.00000000E+00  0.00000000E+00  0.00000000E+00
  0.00000000E+00  0.00000000E+00  0.00000000E+00
  0.00000000E+00  0.00000000E+00  0.00000000E+00
  0.00000000E+00  0.00000000E+00  0.00000000E+00
  0.00000000E+00  0.00000000E+00  0.00000000E+00
  0.00000000E+00  0.00000000E+00  0.00000000E+00
  0.00000000E+00  0.00000000E+00  0.00000000E+00
  0.00000000E+00  0.00000000E+00  0.00000000E+00
  0.00000000E+00  0.00000000E+00  0.00000000E+00
  0.00000000E+00  0.00000000E+00  0.00000000E+00
  0.00000000E+00  0.00000000E+00  0.00000000E+00
  0.00000000E+00  0.00000000E+00  0.00000000E+00
  0.00000000E+00  0.00000000E+00  0.00000000E+00
  0.00000000E+00  0.00000000E+00  0.00000000E+00
  0.00000000E+00  0.00000000E+00  0.00000000E+00
  0.00000000E+00  0.00000000E+00  0.00000000E+00
  0.00000000E+00  0.00000000E+00  0.00000000E+00
  0.00000000E+00  0.00000000E+00  0.00000000E+00
  0.00000000E+00  0.00000000E+00  0.00000000E+00
  0.00000000E+00  0.00000000E+00  0.00000000E+00
  0.00000000E+00  0.00000000E+00  0.00000000E+00
  0.00000000E+00  0.00000000E+00  0.00000000E+00
  0.00000000E+00  0.00000000E+00  0.00000000E+00
  0.00000000E+00  0.00000000E+00  0.00000000E+00
  0.00000000E+00  0.00000000E+00  0.00000000E+00
  0.00000000E+00  0.00000000E+00  0.00000000E+00
  0.00000000E+00  0.00000000E+00  0.00000000E+00
  0.00000000E+00  0.00000000E+00  0.00000000E+00
  0.00000000E+00  0.00000000E+00  0.00000000E+00
  0.00000000E+00  0.00000000E+00  0.00000000E+00
  0.00000000E+00  0.00000000E+00  0.00000000E+00
  0.00000000E+00  0.00000000E+00  0.00000000E+00
  0.00000000E+00  0.00000000E+00  0.00000000E+00
  0.00000000E+00  0.00000000E+00  0.00000000E+00
  0.00000000E+00  0.00000000E+00  0.00000000E+00
  0.00000000E+00  0.00000000E+00  0.00000000E+00
  0.00000000E+00  0.00000000E+00  0.00000000E+00
  0.00000000E+00  0.00000000E+00  0.00000000E+00
  0.00000000E+00  0.00000000E+00  0.00000000E+00
  0.00000000E+00  0.00000000E+00  0.00000000E+00
  0.00000000E+00  0.00000000E+00  0.00000000E+00
  0.00000000E+00  0.00000000E+00  0.00000000E+00
  0.00000000E+00  0.00000000E+00  0.00000000E+00
  0.00000000E+00  0.00000000E+00  0.00000000E+00
  0.00000000E+00  0.00000000E+00  0.00000000E+00
  0.00000000E+00  0.00000000E+00  0.00000000E+00
  0.00000000E+00  0.00000000E+00  0.00000000E+00
  0.00000000E+00  0.00000000E+00  0.00000000E+00
  0.00000000E+00  0.00000000E+00  0.00000000E+00
  0.00000000E+00  0.00000000E+00  0.00000000E+00
  0.00000000E+00  0.00000000E+00  0.00000000E+00
  0.00000000E+00  0.00000000E+00  0.00000000E+00
  0.00000000E+00  0.00000000E+00  0.00000000E+00
  0.00000000E+00  0.00000000E+00  0.00000000E+00
  0.00000000E+00  0.00000000E+00  0.00000000E+00
  0.00000000E+00  0.00000000E+00  0.00000000E+00
  0.00000000E+00  0.00000000E+00  0.00000000E+00
  0.00000000E+00  0.00000000E+00  0.00000000E+00
  0.00000000E+00  0.00000000E+00  0.00000000E+00
  0.00000000E+00  0.00000000E+00  0.00000000E+00
  0.00000000E+00  0.00000000E+00  0.00000000E+00
  0.00000000E+00  0.00000000E+00  0.00000000E+00
  0.00000000E+00  0.00000000E+00  0.00000000E+00
  0.00000000E+00  0.00000000E+00  0.00000000E+00
  0.00000000E+00  0.00000000E+00  0.00000000E+00
