"Mo1 S2"                                
   1.00000000000000     
    19.1043987273999996    0.0000000000000000    0.0000000000000000
    -9.5521993636999998   16.5448946220000010    0.0000000000000000
     0.0000000000000000    0.0000000000000000   18.1271133422999995
   Mo   S 
    36    72
Direct
  0.0000000096971161 -0.0000000271759672  0.4999999986275868
 -0.0000001358774972  0.1666650832417094  0.4999999999240139
 -0.0000001669164680  0.3333347205909346  0.4999999967981663
 -0.0000000631776296  0.5000000017515631  0.5000000021629903
 -0.0000001660889638  0.6666650472969370  0.4999999973818435
 -0.0000000772356308  0.8333348794494655  0.4999999953972778
  0.1666651017819789  0.0000000357493965  0.4999999987883467
  0.1666652093184709  0.1666651234267282  0.5000000062390176
  0.1666666718372472  0.3333332959086875  0.5000000006631673
  0.1666652595159261  0.5000001360508546  0.4999999978275632
  0.1666651978434607  0.6666650538396063  0.5000000066167012
  0.1666666812395705  0.8333334097317229  0.4999999975551602
  0.3333349249007683  0.0000000452480246  0.5000000006660649
  0.3333333653652734  0.1666667728106099  0.5000000042498164
  0.3333348640921877  0.3333347318042586  0.4999999984625231
  0.3333348378220262  0.5000001266059976  0.5000000016054474
  0.3333332972862971  0.6666665741915928  0.5000000004537906
  0.3333349330038346  0.8333348618923682  0.5000000006440333
  0.4999999463634159 -0.0000000286742039  0.5000000007221866
  0.4999998475647155  0.1666651027039266  0.5000000009013175
  0.4999998623477093  0.3333347523334568  0.5000000024237862
  0.5000000318319214  0.4999999971954378  0.5000000000164897
  0.4999999567652921  0.6666651219100653  0.5000000001835218
  0.4999999090381130  0.8333348333309304  0.4999999967488100
  0.6666652826068186  0.0000001407935713  0.5000000016668992
  0.6666652834348435  0.1666651024636306  0.4999999970347747
  0.6666667090974173  0.3333333949449711  0.4999999952384923
  0.6666652427772222  0.5000001370219567  0.4999999985023408
  0.6666652264094465  0.6666651382535492  0.5000000010985552
  0.6666666796465371  0.8333332969489871  0.5000000109972652
  0.8333349010463966  0.0000001678797831  0.5000000000028547
  0.8333333439382361  0.1666666480407507  0.5000000039213265
  0.8333349040623713  0.3333347884520055  0.5000000050817844
  0.8333349288726636  0.5000001011951291  0.5000000006997856
  0.8333332738092778  0.6666666474776990  0.5000000018031302
  0.8333349157898736  0.8333347952598783  0.5000000007850373
  0.1111128142489642  0.0555564141663952  0.5858962476412061
  0.1111122532500182  0.2222245457802564  0.5858795614654924
  0.1111123651123938  0.3888878085065998  0.5858796051131812
  0.1111128456554713  0.5555563428737920  0.5858962519169704
  0.1111122691998911  0.7222246106438019  0.5858796693374245
  0.1111123161828090  0.8888877095266523  0.5858796166122451
  0.2777777818918525  0.0555556152859554  0.5858706855050708
  0.2777778051761108  0.2222222099794814  0.5858705478327459
  0.2777754163282382  0.3888876635859983  0.5858796416303560
  0.2777777050264043  0.5555555561384593  0.5858705916634874
  0.2777778283391952  0.7222222521159022  0.5858707284035305
  0.2777753969175705  0.8888876724434809  0.5858796455641615
  0.4444436356824770  0.0555564784378224  0.5858962775243680
  0.4444444050370258  0.2222221275112358  0.5858705634500614
  0.4444435582683980  0.3888872031880901  0.5858962216253568
  0.4444436231582167  0.5555564147399530  0.5858962518578740
  0.4444443987233747  0.7222221989632840  0.5858706718362138
  0.4444435429007981  0.8888871579473938  0.5858962989765277
  0.6111128592460037  0.0555563811565909  0.5858962817884941
  0.6111122063997595  0.2222245354965836  0.5858795828254900
  0.6111123415904588  0.3888877654750050  0.5858796111659768
  0.6111127942513302  0.5555563693762852  0.5858961724649573
  0.6111122925747839  0.7222246239510540  0.5858796051944841
  0.6111123232217808  0.8888877337042463  0.5858795737871899
  0.7777777783402556  0.0555556332633088  0.5858705232868290
  0.7777778373130450  0.2222221934421776  0.5858705456249522
  0.7777754429451099  0.3888877170423465  0.5858795795464502
  0.7777777596519784  0.5555555769317694  0.5858705413586589
  0.7777778554324408  0.7222222920659579  0.5858705262275892
  0.7777754221417601  0.8888876322543425  0.5858795150024270
  0.9444436355749449  0.0555564834354393  0.5858962173140672
  0.9444443655182110  0.2222221412366351  0.5858705126278992
  0.9444435560100638  0.3888871976045104  0.5858962584725362
  0.9444436112207503  0.5555564172911513  0.5858961999888194
  0.9444444291677226  0.7222221688151143  0.5858706184697112
  0.9444435288470654  0.8888871546676247  0.5858961529641915
  0.1111128105652894  0.0555564099794212  0.4141037505342985
  0.1111122494924854  0.2222245469734818  0.4141204365898922
  0.1111123620976354  0.3888878090407559  0.4141203939491703
  0.1111128465753701  0.5555563406183214  0.4141037473174759
  0.1111122676684904  0.7222246131170521  0.4141203309225565
  0.1111123178260204  0.8888877102850968  0.4141203844986644
  0.2777777801549884  0.0555556136576838  0.4141293121754658
  0.2777778066697609  0.2222222130260819  0.4141294505795715
  0.2777754164926861  0.3888876590661401  0.4141203581375063
  0.2777777049194533  0.5555555557182832  0.4141294097254171
  0.2777778333181688  0.7222222522637001  0.4141292714257678
  0.2777753945004595  0.8888876749348631  0.4141203540811013
  0.4444436347516810  0.0555564788900615  0.4141037221063625
  0.4444444078550950  0.2222221272074100  0.4141294360878200
  0.4444435565977030  0.3888872046377655  0.4141037774116508
  0.4444436233979299  0.5555564134746863  0.4141037483840225
  0.4444443991372725  0.7222222021461007  0.4141293255907130
  0.4444435430245110  0.8888871539972231  0.4141037008057451
  0.6111128591845530  0.0555563817098920  0.4141037179066888
  0.6111122099441171  0.2222245354292573  0.4141204174259566
  0.6111123465674927  0.3888877677991567  0.4141203881266712
  0.6111127932491993  0.5555563684854213  0.4141038246952781
  0.6111122914850271  0.7222246205491205  0.4141203949259232
  0.6111123153779583  0.8888877348123899  0.4141204257870789
  0.7777777789395430  0.0555556343507493  0.4141294748423788
  0.7777778343366678  0.2222221915144542  0.4141294539243162
  0.7777754372862583  0.3888877180191143  0.4141204201333294
  0.7777777556843160  0.5555555718610138  0.4141294590632271
  0.7777778535968030  0.7222222910804410  0.4141294736274762
  0.7777754304828861  0.8888876345648313  0.4141204834016675
  0.9444436343161089  0.0555564794949582  0.4141037799250988
  0.9444443736409323  0.2222221461805999  0.4141294868774965
  0.9444435589438536  0.3888871994818066  0.4141037425298304
  0.9444436121029767  0.5555564192878290  0.4141037993941176
  0.9444444319287696  0.7222221697099774  0.4141293827608311
  0.9444435295305934  0.8888871556441772  0.4141038463705675
 
  0.00000000E+00  0.00000000E+00  0.00000000E+00
  0.00000000E+00  0.00000000E+00  0.00000000E+00
  0.00000000E+00  0.00000000E+00  0.00000000E+00
  0.00000000E+00  0.00000000E+00  0.00000000E+00
  0.00000000E+00  0.00000000E+00  0.00000000E+00
  0.00000000E+00  0.00000000E+00  0.00000000E+00
  0.00000000E+00  0.00000000E+00  0.00000000E+00
  0.00000000E+00  0.00000000E+00  0.00000000E+00
  0.00000000E+00  0.00000000E+00  0.00000000E+00
  0.00000000E+00  0.00000000E+00  0.00000000E+00
  0.00000000E+00  0.00000000E+00  0.00000000E+00
  0.00000000E+00  0.00000000E+00  0.00000000E+00
  0.00000000E+00  0.00000000E+00  0.00000000E+00
  0.00000000E+00  0.00000000E+00  0.00000000E+00
  0.00000000E+00  0.00000000E+00  0.00000000E+00
  0.00000000E+00  0.00000000E+00  0.00000000E+00
  0.00000000E+00  0.00000000E+00  0.00000000E+00
  0.00000000E+00  0.00000000E+00  0.00000000E+00
  0.00000000E+00  0.00000000E+00  0.00000000E+00
  0.00000000E+00  0.00000000E+00  0.00000000E+00
  0.00000000E+00  0.00000000E+00  0.00000000E+00
  0.00000000E+00  0.00000000E+00  0.00000000E+00
  0.00000000E+00  0.00000000E+00  0.00000000E+00
  0.00000000E+00  0.00000000E+00  0.00000000E+00
  0.00000000E+00  0.00000000E+00  0.00000000E+00
  0.00000000E+00  0.00000000E+00  0.00000000E+00
  0.00000000E+00  0.00000000E+00  0.00000000E+00
  0.00000000E+00  0.00000000E+00  0.00000000E+00
  0.00000000E+00  0.00000000E+00  0.00000000E+00
  0.00000000E+00  0.00000000E+00  0.00000000E+00
  0.00000000E+00  0.00000000E+00  0.00000000E+00
  0.00000000E+00  0.00000000E+00  0.00000000E+00
  0.00000000E+00  0.00000000E+00  0.00000000E+00
  0.00000000E+00  0.00000000E+00  0.00000000E+00
  0.00000000E+00  0.00000000E+00  0.00000000E+00
  0.00000000E+00  0.00000000E+00  0.00000000E+00
  0.00000000E+00  0.00000000E+00  0.00000000E+00
  0.00000000E+00  0.00000000E+00  0.00000000E+00
  0.00000000E+00  0.00000000E+00  0.00000000E+00
  0.00000000E+00  0.00000000E+00  0.00000000E+00
  0.00000000E+00  0.00000000E+00  0.00000000E+00
  0.00000000E+00  0.00000000E+00  0.00000000E+00
  0.00000000E+00  0.00000000E+00  0.00000000E+00
  0.00000000E+00  0.00000000E+00  0.00000000E+00
  0.00000000E+00  0.00000000E+00  0.00000000E+00
  0.00000000E+00  0.00000000E+00  0.00000000E+00
  0.00000000E+00  0.00000000E+00  0.00000000E+00
  0.00000000E+00  0.00000000E+00  0.00000000E+00
  0.00000000E+00  0.00000000E+00  0.00000000E+00
  0.00000000E+00  0.00000000E+00  0.00000000E+00
  0.00000000E+00  0.00000000E+00  0.00000000E+00
  0.00000000E+00  0.00000000E+00  0.00000000E+00
  0.00000000E+00  0.00000000E+00  0.00000000E+00
  0.00000000E+00  0.00000000E+00  0.00000000E+00
  0.00000000E+00  0.00000000E+00  0.00000000E+00
  0.00000000E+00  0.00000000E+00  0.00000000E+00
  0.00000000E+00  0.00000000E+00  0.00000000E+00
  0.00000000E+00  0.00000000E+00  0.00000000E+00
  0.00000000E+00  0.00000000E+00  0.00000000E+00
  0.00000000E+00  0.00000000E+00  0.00000000E+00
  0.00000000E+00  0.00000000E+00  0.00000000E+00
  0.00000000E+00  0.00000000E+00  0.00000000E+00
  0.00000000E+00  0.00000000E+00  0.00000000E+00
  0.00000000E+00  0.00000000E+00  0.00000000E+00
  0.00000000E+00  0.00000000E+00  0.00000000E+00
  0.00000000E+00  0.00000000E+00  0.00000000E+00
  0.00000000E+00  0.00000000E+00  0.00000000E+00
  0.00000000E+00  0.00000000E+00  0.00000000E+00
  0.00000000E+00  0.00000000E+00  0.00000000E+00
  0.00000000E+00  0.00000000E+00  0.00000000E+00
  0.00000000E+00  0.00000000E+00  0.00000000E+00
  0.00000000E+00  0.00000000E+00  0.00000000E+00
  0.00000000E+00  0.00000000E+00  0.00000000E+00
  0.00000000E+00  0.00000000E+00  0.00000000E+00
  0.00000000E+00  0.00000000E+00  0.00000000E+00
  0.00000000E+00  0.00000000E+00  0.00000000E+00
  0.00000000E+00  0.00000000E+00  0.00000000E+00
  0.00000000E+00  0.00000000E+00  0.00000000E+00
  0.00000000E+00  0.00000000E+00  0.00000000E+00
  0.00000000E+00  0.00000000E+00  0.00000000E+00
  0.00000000E+00  0.00000000E+00  0.00000000E+00
  0.00000000E+00  0.00000000E+00  0.00000000E+00
  0.00000000E+00  0.00000000E+00  0.00000000E+00
  0.00000000E+00  0.00000000E+00  0.00000000E+00
  0.00000000E+00  0.00000000E+00  0.00000000E+00
  0.00000000E+00  0.00000000E+00  0.00000000E+00
  0.00000000E+00  0.00000000E+00  0.00000000E+00
  0.00000000E+00  0.00000000E+00  0.00000000E+00
  0.00000000E+00  0.00000000E+00  0.00000000E+00
  0.00000000E+00  0.00000000E+00  0.00000000E+00
  0.00000000E+00  0.00000000E+00  0.00000000E+00
  0.00000000E+00  0.00000000E+00  0.00000000E+00
  0.00000000E+00  0.00000000E+00  0.00000000E+00
  0.00000000E+00  0.00000000E+00  0.00000000E+00
  0.00000000E+00  0.00000000E+00  0.00000000E+00
  0.00000000E+00  0.00000000E+00  0.00000000E+00
  0.00000000E+00  0.00000000E+00  0.00000000E+00
  0.00000000E+00  0.00000000E+00  0.00000000E+00
  0.00000000E+00  0.00000000E+00  0.00000000E+00
  0.00000000E+00  0.00000000E+00  0.00000000E+00
  0.00000000E+00  0.00000000E+00  0.00000000E+00
  0.00000000E+00  0.00000000E+00  0.00000000E+00
  0.00000000E+00  0.00000000E+00  0.00000000E+00
  0.00000000E+00  0.00000000E+00  0.00000000E+00
  0.00000000E+00  0.00000000E+00  0.00000000E+00
  0.00000000E+00  0.00000000E+00  0.00000000E+00
  0.00000000E+00  0.00000000E+00  0.00000000E+00
  0.00000000E+00  0.00000000E+00  0.00000000E+00
