CONTCAR_MoS2_Li2S4                      
   1.00000000000000     
    19.1044006348000011    0.0000000000000000    0.0000000000000000
    -9.5522003174000005   16.5448962737999992    0.0000000000000000
     0.0000000000000000    0.0000000000000000   18.1270999908000014
   Mo   S    Li
    36    76     2
Direct
  0.0000000000000000  0.0000000000000000  0.5000000000000000
  0.0000000000000000  0.1666700000000034  0.5000000000000000
  0.0000000000000000  0.3333299999999966  0.5000000000000000
  0.0000000000000000  0.5000000000000000  0.5000000000000000
  0.0000000000000000  0.6666700000000034  0.5000000000000000
  0.0000000000000000  0.8333299999999966  0.5000000000000000
  0.1666700000000034  0.0000000000000000  0.5000000000000000
  0.1666700000000034  0.1666700000000034  0.5000000000000000
  0.1666700000000034  0.3333299999999966  0.5000000000000000
  0.1666700000000034  0.5000000000000000  0.5000000000000000
  0.1666700000000034  0.6666700000000034  0.5000000000000000
  0.1666700000000034  0.8333299999999966  0.5000000000000000
  0.3333299999999966  0.0000000000000000  0.5000000000000000
  0.3333299999999966  0.1666700000000034  0.5000000000000000
  0.3333299999999966  0.3333299999999966  0.5000000000000000
  0.3333299999999966  0.5000000000000000  0.5000000000000000
  0.3333299999999966  0.6666700000000034  0.5000000000000000
  0.3333299999999966  0.8333299999999966  0.5000000000000000
  0.5000000000000000  0.0000000000000000  0.5000000000000000
  0.5000000000000000  0.1666700000000034  0.5000000000000000
  0.5000000000000000  0.3333299999999966  0.5000000000000000
  0.5000000000000000  0.5000000000000000  0.5000000000000000
  0.5000000000000000  0.6666700000000034  0.5000000000000000
  0.5000000000000000  0.8333299999999966  0.5000000000000000
  0.6666700000000034  0.0000000000000000  0.5000000000000000
  0.6666700000000034  0.1666700000000034  0.5000000000000000
  0.6666700000000034  0.3333299999999966  0.5000000000000000
  0.6666700000000034  0.5000000000000000  0.5000000000000000
  0.6666700000000034  0.6666700000000034  0.5000000000000000
  0.6666700000000034  0.8333299999999966  0.5000000000000000
  0.8333299999999966  0.0000000000000000  0.5000000000000000
  0.8333299999999966  0.1666700000000034  0.5000000000000000
  0.8333299999999966  0.3333299999999966  0.5000000000000000
  0.8333299999999966  0.5000000000000000  0.5000000000000000
  0.8333299999999966  0.6666700000000034  0.5000000000000000
  0.8333299999999966  0.8333299999999966  0.5000000000000000
  0.1111099999999965  0.0555599999999998  0.5862499999999997
  0.1111099999999965  0.2222200000000001  0.5862499999999997
  0.1111099999999965  0.3888900000000035  0.5862499999999997
  0.1111099999999965  0.5555599999999998  0.5862499999999997
  0.1111099999999965  0.7222200000000001  0.5862499999999997
  0.1111099999999965  0.8888900000000035  0.5862499999999997
  0.2777799999999999  0.0555599999999998  0.5862499999999997
  0.2777799999999999  0.2222200000000001  0.5862499999999997
  0.2777799999999999  0.3888900000000035  0.5862499999999997
  0.2777799999999999  0.5555599999999998  0.5862499999999997
  0.2777799999999999  0.7222200000000001  0.5862499999999997
  0.2777799999999999  0.8888900000000035  0.5862499999999997
  0.4444400000000002  0.0555599999999998  0.5862499999999997
  0.4444400000000002  0.2222200000000001  0.5862499999999997
  0.4444400000000002  0.3888900000000035  0.5862499999999997
  0.4444400000000002  0.5555599999999998  0.5862499999999997
  0.4444400000000002  0.7222200000000001  0.5862499999999997
  0.4444400000000002  0.8888900000000035  0.5862499999999997
  0.6111099999999965  0.0555599999999998  0.5862499999999997
  0.6111099999999965  0.2222200000000001  0.5862499999999997
  0.6111099999999965  0.3888900000000035  0.5862499999999997
  0.6111099999999965  0.5555599999999998  0.5862499999999997
  0.6111099999999965  0.7222200000000001  0.5862499999999997
  0.6111099999999965  0.8888900000000035  0.5862499999999997
  0.7777799999999999  0.0555599999999998  0.5862499999999997
  0.7777799999999999  0.2222200000000001  0.5862499999999997
  0.7777799999999999  0.3888900000000035  0.5862499999999997
  0.7777799999999999  0.5555599999999998  0.5862499999999997
  0.7777799999999999  0.7222200000000001  0.5862499999999997
  0.7777799999999999  0.8888900000000035  0.5862499999999997
  0.9444400000000002  0.0555599999999998  0.5862499999999997
  0.9444400000000002  0.2222200000000001  0.5862499999999997
  0.9444400000000002  0.3888900000000035  0.5862499999999997
  0.9444400000000002  0.5555599999999998  0.5862499999999997
  0.9444400000000002  0.7222200000000001  0.5862499999999997
  0.9444400000000002  0.8888900000000035  0.5862499999999997
  0.1111099999999965  0.0555599999999998  0.4137399999999971
  0.1111099999999965  0.2222200000000001  0.4137399999999971
  0.1111099999999965  0.3888900000000035  0.4137399999999971
  0.1111099999999965  0.5555599999999998  0.4137399999999971
  0.1111099999999965  0.7222200000000001  0.4137399999999971
  0.1111099999999965  0.8888900000000035  0.4137399999999971
  0.2777799999999999  0.0555599999999998  0.4137399999999971
  0.2777799999999999  0.2222200000000001  0.4137399999999971
  0.2777799999999999  0.3888900000000035  0.4137399999999971
  0.2777799999999999  0.5555599999999998  0.4137399999999971
  0.2777799999999999  0.7222200000000001  0.4137399999999971
  0.2777799999999999  0.8888900000000035  0.4137399999999971
  0.4444400000000002  0.0555599999999998  0.4137399999999971
  0.4444400000000002  0.2222200000000001  0.4137399999999971
  0.4444400000000002  0.3888900000000035  0.4137399999999971
  0.4444400000000002  0.5555599999999998  0.4137399999999971
  0.4444400000000002  0.7222200000000001  0.4137399999999971
  0.4444400000000002  0.8888900000000035  0.4137399999999971
  0.6111099999999965  0.0555599999999998  0.4137399999999971
  0.6111099999999965  0.2222200000000001  0.4137399999999971
  0.6111099999999965  0.3888900000000035  0.4137399999999971
  0.6111099999999965  0.5555599999999998  0.4137399999999971
  0.6111099999999965  0.7222200000000001  0.4137399999999971
  0.6111099999999965  0.8888900000000035  0.4137399999999971
  0.7777799999999999  0.0555599999999998  0.4137399999999971
  0.7777799999999999  0.2222200000000001  0.4137399999999971
  0.7777799999999999  0.3888900000000035  0.4137399999999971
  0.7777799999999999  0.5555599999999998  0.4137399999999971
  0.7777799999999999  0.7222200000000001  0.4137399999999971
  0.7777799999999999  0.8888900000000035  0.4137399999999971
  0.9444400000000002  0.0555599999999998  0.4137399999999971
  0.9444400000000002  0.2222200000000001  0.4137399999999971
  0.9444400000000002  0.3888900000000035  0.4137399999999971
  0.9444400000000002  0.5555599999999998  0.4137399999999971
  0.9444400000000002  0.7222200000000001  0.4137399999999971
  0.9444400000000002  0.8888900000000035  0.4137399999999971
  0.4801900000000003  0.4526400000000024  0.7520499999999970
  0.4875699999999981  0.5128300000000010  0.8502300000000034
  0.6027699999999996  0.6177599999999970  0.8487599999999986
  0.6059399999999968  0.6780299999999997  0.7518299999999982
  0.6141799999999975  0.5609999999999999  0.7351499999999973
  0.4712699999999970  0.5696900000000014  0.7387400000000000
 
  0.00000000E+00  0.00000000E+00  0.00000000E+00
  0.00000000E+00  0.00000000E+00  0.00000000E+00
  0.00000000E+00  0.00000000E+00  0.00000000E+00
  0.00000000E+00  0.00000000E+00  0.00000000E+00
  0.00000000E+00  0.00000000E+00  0.00000000E+00
  0.00000000E+00  0.00000000E+00  0.00000000E+00
  0.00000000E+00  0.00000000E+00  0.00000000E+00
  0.00000000E+00  0.00000000E+00  0.00000000E+00
  0.00000000E+00  0.00000000E+00  0.00000000E+00
  0.00000000E+00  0.00000000E+00  0.00000000E+00
  0.00000000E+00  0.00000000E+00  0.00000000E+00
  0.00000000E+00  0.00000000E+00  0.00000000E+00
  0.00000000E+00  0.00000000E+00  0.00000000E+00
  0.00000000E+00  0.00000000E+00  0.00000000E+00
  0.00000000E+00  0.00000000E+00  0.00000000E+00
  0.00000000E+00  0.00000000E+00  0.00000000E+00
  0.00000000E+00  0.00000000E+00  0.00000000E+00
  0.00000000E+00  0.00000000E+00  0.00000000E+00
  0.00000000E+00  0.00000000E+00  0.00000000E+00
  0.00000000E+00  0.00000000E+00  0.00000000E+00
  0.00000000E+00  0.00000000E+00  0.00000000E+00
  0.00000000E+00  0.00000000E+00  0.00000000E+00
  0.00000000E+00  0.00000000E+00  0.00000000E+00
  0.00000000E+00  0.00000000E+00  0.00000000E+00
  0.00000000E+00  0.00000000E+00  0.00000000E+00
  0.00000000E+00  0.00000000E+00  0.00000000E+00
  0.00000000E+00  0.00000000E+00  0.00000000E+00
  0.00000000E+00  0.00000000E+00  0.00000000E+00
  0.00000000E+00  0.00000000E+00  0.00000000E+00
  0.00000000E+00  0.00000000E+00  0.00000000E+00
  0.00000000E+00  0.00000000E+00  0.00000000E+00
  0.00000000E+00  0.00000000E+00  0.00000000E+00
  0.00000000E+00  0.00000000E+00  0.00000000E+00
  0.00000000E+00  0.00000000E+00  0.00000000E+00
  0.00000000E+00  0.00000000E+00  0.00000000E+00
  0.00000000E+00  0.00000000E+00  0.00000000E+00
  0.00000000E+00  0.00000000E+00  0.00000000E+00
  0.00000000E+00  0.00000000E+00  0.00000000E+00
  0.00000000E+00  0.00000000E+00  0.00000000E+00
  0.00000000E+00  0.00000000E+00  0.00000000E+00
  0.00000000E+00  0.00000000E+00  0.00000000E+00
  0.00000000E+00  0.00000000E+00  0.00000000E+00
  0.00000000E+00  0.00000000E+00  0.00000000E+00
  0.00000000E+00  0.00000000E+00  0.00000000E+00
  0.00000000E+00  0.00000000E+00  0.00000000E+00
  0.00000000E+00  0.00000000E+00  0.00000000E+00
  0.00000000E+00  0.00000000E+00  0.00000000E+00
  0.00000000E+00  0.00000000E+00  0.00000000E+00
  0.00000000E+00  0.00000000E+00  0.00000000E+00
  0.00000000E+00  0.00000000E+00  0.00000000E+00
  0.00000000E+00  0.00000000E+00  0.00000000E+00
  0.00000000E+00  0.00000000E+00  0.00000000E+00
  0.00000000E+00  0.00000000E+00  0.00000000E+00
  0.00000000E+00  0.00000000E+00  0.00000000E+00
  0.00000000E+00  0.00000000E+00  0.00000000E+00
  0.00000000E+00  0.00000000E+00  0.00000000E+00
  0.00000000E+00  0.00000000E+00  0.00000000E+00
  0.00000000E+00  0.00000000E+00  0.00000000E+00
  0.00000000E+00  0.00000000E+00  0.00000000E+00
  0.00000000E+00  0.00000000E+00  0.00000000E+00
  0.00000000E+00  0.00000000E+00  0.00000000E+00
  0.00000000E+00  0.00000000E+00  0.00000000E+00
  0.00000000E+00  0.00000000E+00  0.00000000E+00
  0.00000000E+00  0.00000000E+00  0.00000000E+00
  0.00000000E+00  0.00000000E+00  0.00000000E+00
  0.00000000E+00  0.00000000E+00  0.00000000E+00
  0.00000000E+00  0.00000000E+00  0.00000000E+00
  0.00000000E+00  0.00000000E+00  0.00000000E+00
  0.00000000E+00  0.00000000E+00  0.00000000E+00
  0.00000000E+00  0.00000000E+00  0.00000000E+00
  0.00000000E+00  0.00000000E+00  0.00000000E+00
  0.00000000E+00  0.00000000E+00  0.00000000E+00
  0.00000000E+00  0.00000000E+00  0.00000000E+00
  0.00000000E+00  0.00000000E+00  0.00000000E+00
  0.00000000E+00  0.00000000E+00  0.00000000E+00
  0.00000000E+00  0.00000000E+00  0.00000000E+00
  0.00000000E+00  0.00000000E+00  0.00000000E+00
  0.00000000E+00  0.00000000E+00  0.00000000E+00
  0.00000000E+00  0.00000000E+00  0.00000000E+00
  0.00000000E+00  0.00000000E+00  0.00000000E+00
  0.00000000E+00  0.00000000E+00  0.00000000E+00
  0.00000000E+00  0.00000000E+00  0.00000000E+00
  0.00000000E+00  0.00000000E+00  0.00000000E+00
  0.00000000E+00  0.00000000E+00  0.00000000E+00
  0.00000000E+00  0.00000000E+00  0.00000000E+00
  0.00000000E+00  0.00000000E+00  0.00000000E+00
  0.00000000E+00  0.00000000E+00  0.00000000E+00
  0.00000000E+00  0.00000000E+00  0.00000000E+00
  0.00000000E+00  0.00000000E+00  0.00000000E+00
  0.00000000E+00  0.00000000E+00  0.00000000E+00
  0.00000000E+00  0.00000000E+00  0.00000000E+00
  0.00000000E+00  0.00000000E+00  0.00000000E+00
  0.00000000E+00  0.00000000E+00  0.00000000E+00
  0.00000000E+00  0.00000000E+00  0.00000000E+00
  0.00000000E+00  0.00000000E+00  0.00000000E+00
  0.00000000E+00  0.00000000E+00  0.00000000E+00
  0.00000000E+00  0.00000000E+00  0.00000000E+00
  0.00000000E+00  0.00000000E+00  0.00000000E+00
  0.00000000E+00  0.00000000E+00  0.00000000E+00
  0.00000000E+00  0.00000000E+00  0.00000000E+00
  0.00000000E+00  0.00000000E+00  0.00000000E+00
  0.00000000E+00  0.00000000E+00  0.00000000E+00
  0.00000000E+00  0.00000000E+00  0.00000000E+00
  0.00000000E+00  0.00000000E+00  0.00000000E+00
  0.00000000E+00  0.00000000E+00  0.00000000E+00
  0.00000000E+00  0.00000000E+00  0.00000000E+00
  0.00000000E+00  0.00000000E+00  0.00000000E+00
  0.00000000E+00  0.00000000E+00  0.00000000E+00
  0.00000000E+00  0.00000000E+00  0.00000000E+00
  0.00000000E+00  0.00000000E+00  0.00000000E+00
  0.00000000E+00  0.00000000E+00  0.00000000E+00
  0.00000000E+00  0.00000000E+00  0.00000000E+00
  0.00000000E+00  0.00000000E+00  0.00000000E+00
  0.00000000E+00  0.00000000E+00  0.00000000E+00
