CONTCAR_MoS2_Li2S6                      
   1.00000000000000     
    19.1044006348000011    0.0000000000000000    0.0000000000000000
    -9.5522003174000005   16.5448962737999992    0.0000000000000000
     0.0000000000000000    0.0000000000000000   18.1270999908000014
   Mo   S    Li
    36    78     2
Direct
  0.9978029560795783  0.0016007112955627  0.4970919153494684
  0.9977929647329640  0.1682146198146285  0.4968159443772799
  0.9977970594651151  0.3348825110161985  0.4967150536886106
  0.9978104552684850  0.5015299397191687  0.4967946353610530
  0.9977321074706809  0.6681902376131851  0.4970327430933926
  0.9977313132222070  0.8348885753714859  0.4971926778999818
  0.1644793592561372  0.0016288330030512  0.4972712944617061
  0.1644512147558609  0.1682792891602630  0.4972076384343185
  0.1644262816661376  0.3349050335466638  0.4967569241532672
  0.1644349088808240  0.5014781172519767  0.4970159625677843
  0.1644418826874751  0.6681612042846468  0.4971108822905353
  0.1644392600129660  0.8349060348273777  0.4972004590003940
  0.3311189890689705  0.0016075550046618  0.4971104756654578
  0.3312405999848183  0.1684521084851627  0.4972069142721576
  0.3309833103390077  0.3350620876823472  0.4973649962888440
  0.3308205763370579  0.5011324318422953  0.4971812521663746
  0.3311897357695458  0.6681112501153269  0.4971587712677698
  0.3311187874027823  0.8348301900300318  0.4971012759306847
  0.4977772075693467  0.0015380800023470  0.4968122807707290
  0.4978135116039945  0.1681840098848337  0.4965843044353847
  0.4980249196661056  0.3347651935218746  0.4960657054139062
  0.4978530384747266  0.5014706518902228  0.4968430184425808
  0.4980577132773594  0.6684626950956483  0.4969692516625899
  0.4978133077263898  0.8348895044441386  0.4969718109455797
  0.6644729157384377  0.0015452424122824  0.4967193578481384
  0.6644684326721531  0.1681378847596212  0.4964183528782912
  0.6646325580208584  0.3346757900938956  0.4958526394349196
  0.6646047548591406  0.5012071018854104  0.4961507044132753
  0.6644955012124041  0.6684699724831339  0.4969910925791586
  0.6644655847623245  0.8349389294608929  0.4967552654698322
  0.8311629299121900  0.0015879154682812  0.4968311559968062
  0.8311494764686764  0.1682120830589699  0.4965821132840832
  0.8311899385059492  0.3348435498264868  0.4964021183566255
  0.8311670713010394  0.5014782006914585  0.4965041307319992
  0.8309805635557582  0.6681357978356617  0.4969842424554785
  0.8310760264849647  0.8348903597566315  0.4970822832796965
  0.1088725902228126  0.0571779399962425  0.5830827682746554
  0.1087837961040084  0.2238902776709427  0.5828473259593360
  0.1087701480655304  0.3903059095562866  0.5827769603737689
  0.1087787345831486  0.5569306681896823  0.5828570322690964
  0.1088153596640861  0.7236884924763014  0.5829837994413727
  0.1088640028691608  0.8904416784099164  0.5831082780676015
  0.2757155221855139  0.0573082114295783  0.5830963367439568
  0.2755289232846371  0.2238801806777423  0.5833316492819512
  0.2751070056523405  0.3902253861630367  0.5831537813605331
  0.2754256414976970  0.5569143816273255  0.5830547566590101
  0.2755740738725563  0.7236860028568952  0.5830099337818235
  0.2756410889976582  0.8904780289797707  0.5830119407991027
  0.4424247661876504  0.0573028913078669  0.5827310249469129
  0.4426989010532707  0.2240871894080913  0.5827119688913736
  0.4424902887287503  0.3897763103199577  0.5817929438356766
  0.4420508043137849  0.5571840182557397  0.5828059000841176
  0.4424216722666553  0.7239093482454652  0.5829854771601589
  0.4423557311310696  0.8905648924667855  0.5828393610500346
  0.6090332062318118  0.0572322720473011  0.5825375011807975
  0.6091151752699739  0.2238949678329726  0.5822013346699015
  0.6092330980002386  0.3899345105654728  0.5815518001151466
  0.6098196897458983  0.5571103400330540  0.5821714309566076
  0.6090504544066883  0.7241555159492065  0.5823447363955858
  0.6089920939908291  0.8905639167084307  0.5827330245870311
  0.7755965076209691  0.0572311247989317  0.5825907161632670
  0.7755352361751880  0.2237894661592328  0.5823423162264082
  0.7754171660674650  0.3902054360395963  0.5821572419193584
  0.7754025524841335  0.5566653979291162  0.5825354854258186
  0.7754818213310800  0.7237665629572202  0.5830668987289689
  0.7755047108383822  0.8905548910614732  0.5828138810054156
  0.9421882811321063  0.0572152756571134  0.5828288781570143
  0.9421673301660365  0.2237938347769268  0.5825676839391698
  0.9420815277398290  0.3903120006755198  0.5825227118327929
  0.9420237287920183  0.5568616770157185  0.5826780463839071
  0.9420140569017644  0.7236102685903079  0.5829586065837256
  0.9421750916532862  0.8904934493154929  0.5830006043019538
  0.1090195362313479  0.0571752868718559  0.4113219994477740
  0.1089933707779865  0.2236877129207231  0.4110429823216722
  0.1089451364221548  0.3905384138110120  0.4109186118627007
  0.1090706132633727  0.5571851678033197  0.4110979866955988
  0.1089527435781320  0.7238625684997959  0.4112595227618065
  0.1088879717314940  0.8905179445546217  0.4113785923166314
  0.2755200517108784  0.0572397435399713  0.4113733177565436
  0.2755709576053538  0.2239602910839810  0.4114569134653582
  0.2755853777541061  0.3903663548632024  0.4110063303709284
  0.2756410219305692  0.5569961188720595  0.4112649706340877
  0.2755705521604782  0.7236553657884007  0.4112871235649356
  0.2754994697593122  0.8904217285466998  0.4112907821846100
  0.4419698671435040  0.0568909035045447  0.4109594656280223
  0.4419002108226170  0.2234610348745007  0.4107594925776568
  0.4419385719510545  0.3904258943967309  0.4110021339401998
  0.4421360816489158  0.5570690915756367  0.4113072499917284
  0.4422522005671622  0.7237075501473583  0.4111861134372224
  0.4420971177059521  0.8902960930602789  0.4110815590417023
  0.6087671026277205  0.0568443264537633  0.4107572395555514
  0.6087088663976523  0.2233457274250034  0.4103550207274232
  0.6089499930475192  0.3903197390116392  0.4099751330566763
  0.6089199761000587  0.5572854926824999  0.4108557849798727
  0.6089330182584648  0.7238105276618590  0.4109222819488412
  0.6087781911549812  0.8903670227865986  0.4109002512864589
  0.7755953876223092  0.0570029931440018  0.4108367835039364
  0.7756208996940882  0.2236703783368711  0.4105539954704152
  0.7759414474254299  0.3905334183348711  0.4103180119953234
  0.7758509910141786  0.5573362957076474  0.4106706765697155
  0.7755211970215007  0.7238519130957207  0.4111792206048706
  0.7756748782908957  0.8904422985855107  0.4109935857300853
  0.9423103213864764  0.0570459878421977  0.4110131395338927
  0.9423604959865958  0.2237693670677404  0.4108064901615585
  0.9424646449083774  0.3905486040963391  0.4107373510942878
  0.9424805342384659  0.5573187752212716  0.4109010795313763
  0.9422308649591737  0.7238700024956044  0.4112383163481768
  0.9422650717999106  0.8904447351987524  0.4112609612784346
  0.4667578964061899  0.4448811573093387  0.7107976869421877
  0.6282616886368616  0.6714638435122317  0.8256881953761480
  0.4836631516289668  0.4910852026234041  0.8924921397018470
  0.5955669085308041  0.6775101898843948  0.7180858940599802
  0.4045752892649204  0.4386031891585377  0.8060736542938285
  0.5267592132180531  0.6159940117277738  0.8912435888944170
  0.5993934482951356  0.5583285544274438  0.7334797470516592
  0.4624896758803953  0.5643625727077292  0.7278648400823531
 
  0.00000000E+00  0.00000000E+00  0.00000000E+00
  0.00000000E+00  0.00000000E+00  0.00000000E+00
  0.00000000E+00  0.00000000E+00  0.00000000E+00
  0.00000000E+00  0.00000000E+00  0.00000000E+00
  0.00000000E+00  0.00000000E+00  0.00000000E+00
  0.00000000E+00  0.00000000E+00  0.00000000E+00
  0.00000000E+00  0.00000000E+00  0.00000000E+00
  0.00000000E+00  0.00000000E+00  0.00000000E+00
  0.00000000E+00  0.00000000E+00  0.00000000E+00
  0.00000000E+00  0.00000000E+00  0.00000000E+00
  0.00000000E+00  0.00000000E+00  0.00000000E+00
  0.00000000E+00  0.00000000E+00  0.00000000E+00
  0.00000000E+00  0.00000000E+00  0.00000000E+00
  0.00000000E+00  0.00000000E+00  0.00000000E+00
  0.00000000E+00  0.00000000E+00  0.00000000E+00
  0.00000000E+00  0.00000000E+00  0.00000000E+00
  0.00000000E+00  0.00000000E+00  0.00000000E+00
  0.00000000E+00  0.00000000E+00  0.00000000E+00
  0.00000000E+00  0.00000000E+00  0.00000000E+00
  0.00000000E+00  0.00000000E+00  0.00000000E+00
  0.00000000E+00  0.00000000E+00  0.00000000E+00
  0.00000000E+00  0.00000000E+00  0.00000000E+00
  0.00000000E+00  0.00000000E+00  0.00000000E+00
  0.00000000E+00  0.00000000E+00  0.00000000E+00
  0.00000000E+00  0.00000000E+00  0.00000000E+00
  0.00000000E+00  0.00000000E+00  0.00000000E+00
  0.00000000E+00  0.00000000E+00  0.00000000E+00
  0.00000000E+00  0.00000000E+00  0.00000000E+00
  0.00000000E+00  0.00000000E+00  0.00000000E+00
  0.00000000E+00  0.00000000E+00  0.00000000E+00
  0.00000000E+00  0.00000000E+00  0.00000000E+00
  0.00000000E+00  0.00000000E+00  0.00000000E+00
  0.00000000E+00  0.00000000E+00  0.00000000E+00
  0.00000000E+00  0.00000000E+00  0.00000000E+00
  0.00000000E+00  0.00000000E+00  0.00000000E+00
  0.00000000E+00  0.00000000E+00  0.00000000E+00
  0.00000000E+00  0.00000000E+00  0.00000000E+00
  0.00000000E+00  0.00000000E+00  0.00000000E+00
  0.00000000E+00  0.00000000E+00  0.00000000E+00
  0.00000000E+00  0.00000000E+00  0.00000000E+00
  0.00000000E+00  0.00000000E+00  0.00000000E+00
  0.00000000E+00  0.00000000E+00  0.00000000E+00
  0.00000000E+00  0.00000000E+00  0.00000000E+00
  0.00000000E+00  0.00000000E+00  0.00000000E+00
  0.00000000E+00  0.00000000E+00  0.00000000E+00
  0.00000000E+00  0.00000000E+00  0.00000000E+00
  0.00000000E+00  0.00000000E+00  0.00000000E+00
  0.00000000E+00  0.00000000E+00  0.00000000E+00
  0.00000000E+00  0.00000000E+00  0.00000000E+00
  0.00000000E+00  0.00000000E+00  0.00000000E+00
  0.00000000E+00  0.00000000E+00  0.00000000E+00
  0.00000000E+00  0.00000000E+00  0.00000000E+00
  0.00000000E+00  0.00000000E+00  0.00000000E+00
  0.00000000E+00  0.00000000E+00  0.00000000E+00
  0.00000000E+00  0.00000000E+00  0.00000000E+00
  0.00000000E+00  0.00000000E+00  0.00000000E+00
  0.00000000E+00  0.00000000E+00  0.00000000E+00
  0.00000000E+00  0.00000000E+00  0.00000000E+00
  0.00000000E+00  0.00000000E+00  0.00000000E+00
  0.00000000E+00  0.00000000E+00  0.00000000E+00
  0.00000000E+00  0.00000000E+00  0.00000000E+00
  0.00000000E+00  0.00000000E+00  0.00000000E+00
  0.00000000E+00  0.00000000E+00  0.00000000E+00
  0.00000000E+00  0.00000000E+00  0.00000000E+00
  0.00000000E+00  0.00000000E+00  0.00000000E+00
  0.00000000E+00  0.00000000E+00  0.00000000E+00
  0.00000000E+00  0.00000000E+00  0.00000000E+00
  0.00000000E+00  0.00000000E+00  0.00000000E+00
  0.00000000E+00  0.00000000E+00  0.00000000E+00
  0.00000000E+00  0.00000000E+00  0.00000000E+00
  0.00000000E+00  0.00000000E+00  0.00000000E+00
  0.00000000E+00  0.00000000E+00  0.00000000E+00
  0.00000000E+00  0.00000000E+00  0.00000000E+00
  0.00000000E+00  0.00000000E+00  0.00000000E+00
  0.00000000E+00  0.00000000E+00  0.00000000E+00
  0.00000000E+00  0.00000000E+00  0.00000000E+00
  0.00000000E+00  0.00000000E+00  0.00000000E+00
  0.00000000E+00  0.00000000E+00  0.00000000E+00
  0.00000000E+00  0.00000000E+00  0.00000000E+00
  0.00000000E+00  0.00000000E+00  0.00000000E+00
  0.00000000E+00  0.00000000E+00  0.00000000E+00
  0.00000000E+00  0.00000000E+00  0.00000000E+00
  0.00000000E+00  0.00000000E+00  0.00000000E+00
  0.00000000E+00  0.00000000E+00  0.00000000E+00
  0.00000000E+00  0.00000000E+00  0.00000000E+00
  0.00000000E+00  0.00000000E+00  0.00000000E+00
  0.00000000E+00  0.00000000E+00  0.00000000E+00
  0.00000000E+00  0.00000000E+00  0.00000000E+00
  0.00000000E+00  0.00000000E+00  0.00000000E+00
  0.00000000E+00  0.00000000E+00  0.00000000E+00
  0.00000000E+00  0.00000000E+00  0.00000000E+00
  0.00000000E+00  0.00000000E+00  0.00000000E+00
  0.00000000E+00  0.00000000E+00  0.00000000E+00
  0.00000000E+00  0.00000000E+00  0.00000000E+00
  0.00000000E+00  0.00000000E+00  0.00000000E+00
  0.00000000E+00  0.00000000E+00  0.00000000E+00
  0.00000000E+00  0.00000000E+00  0.00000000E+00
  0.00000000E+00  0.00000000E+00  0.00000000E+00
  0.00000000E+00  0.00000000E+00  0.00000000E+00
  0.00000000E+00  0.00000000E+00  0.00000000E+00
  0.00000000E+00  0.00000000E+00  0.00000000E+00
  0.00000000E+00  0.00000000E+00  0.00000000E+00
  0.00000000E+00  0.00000000E+00  0.00000000E+00
  0.00000000E+00  0.00000000E+00  0.00000000E+00
  0.00000000E+00  0.00000000E+00  0.00000000E+00
  0.00000000E+00  0.00000000E+00  0.00000000E+00
  0.00000000E+00  0.00000000E+00  0.00000000E+00
  0.00000000E+00  0.00000000E+00  0.00000000E+00
  0.00000000E+00  0.00000000E+00  0.00000000E+00
  0.00000000E+00  0.00000000E+00  0.00000000E+00
  0.00000000E+00  0.00000000E+00  0.00000000E+00
  0.00000000E+00  0.00000000E+00  0.00000000E+00
  0.00000000E+00  0.00000000E+00  0.00000000E+00
  0.00000000E+00  0.00000000E+00  0.00000000E+00
  0.00000000E+00  0.00000000E+00  0.00000000E+00
  0.00000000E+00  0.00000000E+00  0.00000000E+00
