Li2S8                                   
   1.00000000000000     
    30.0000000000000000    0.0000000000000000    0.0000000000000000
     0.0000000000000000   30.0000000000000000    0.0000000000000000
     0.0000000000000000    0.0000000000000000   20.0000000000000000
   Li   S 
     2     7
Direct
  0.4894226661293606  0.5694504862338129  0.4420247353246762
  0.5076362931513286  0.5524106491999244  0.5696192467266632
  0.4259171254042706  0.5226071748405456  0.4642566932288825
  0.5477866696234054  0.4724577174148009  0.4581888753202041
  0.5050705179581572  0.4666149725694211  0.5460478805969391
  0.5596371566074532  0.5805967204952696  0.4913950926822996
  0.5913880048099146  0.5193314797653499  0.4876049950940420
  0.4412302351778910  0.4625130649586948  0.5116766840622539
  0.4350123311382041  0.5749277345221839  0.5291257969640486
 
  0.00000000E+00  0.00000000E+00  0.00000000E+00
  0.00000000E+00  0.00000000E+00  0.00000000E+00
  0.00000000E+00  0.00000000E+00  0.00000000E+00
  0.00000000E+00  0.00000000E+00  0.00000000E+00
  0.00000000E+00  0.00000000E+00  0.00000000E+00
  0.00000000E+00  0.00000000E+00  0.00000000E+00
  0.00000000E+00  0.00000000E+00  0.00000000E+00
  0.00000000E+00  0.00000000E+00  0.00000000E+00
  0.00000000E+00  0.00000000E+00  0.00000000E+00
