S8                                      
   1.00000000000000     
    20.0000000000000000    0.0000000000000000    0.0000000000000000
     0.0000000000000000   20.0000000000000000    0.0000000000000000
     0.0000000000000000    0.0000000000000000   20.0000000000000000
   S 
     8
Direct
  0.4368878875870224  0.6052639579315460  0.4469171702841860
  0.5277815758375779  0.6052494596076965  0.4952762679505267
  0.3728993159773746  0.4502324018573064  0.4465378651182890
  0.5917767658595879  0.4502439845614107  0.4956269162380779
  0.3728958551337274  0.5408435783070485  0.4954525736096171
  0.5918204685405981  0.5408523904329701  0.4467312765366249
  0.4368452307916018  0.3858438122955135  0.4951533330412385
  0.5278249002725134  0.3858704150065059  0.4469605972214329
 
  0.00000000E+00  0.00000000E+00  0.00000000E+00
  0.00000000E+00  0.00000000E+00  0.00000000E+00
  0.00000000E+00  0.00000000E+00  0.00000000E+00
  0.00000000E+00  0.00000000E+00  0.00000000E+00
  0.00000000E+00  0.00000000E+00  0.00000000E+00
  0.00000000E+00  0.00000000E+00  0.00000000E+00
  0.00000000E+00  0.00000000E+00  0.00000000E+00
  0.00000000E+00  0.00000000E+00  0.00000000E+00
