661_S8                                  
   1.00000000000000     
    19.1044006348000011    0.0000000000000000    0.0000000000000000
    -9.5522003174000005   16.5448962737999992    0.0000000000000000
     0.0000000000000000    0.0000000000000000   18.1270999908000014
   Mo   S 
    36    74
Direct
  0.0000476764139446 -0.0006475654725903  0.4995030979683038
  0.0000545614707804  0.1660310209882385  0.4994810867138130
  0.0000754862744075  0.3327089629025557  0.4995634470701438
  0.0000795325472444  0.4994226894840896  0.4996511416369580
  0.0000753435531343  0.6660894233861721  0.4996707822107618
  0.0000700104290507  0.8327072678594808  0.4996224306777595
  0.1667549083040889 -0.0006461708201306  0.4995235412839203
  0.1667163423658091  0.1660023937701037  0.4993844408672181
  0.1667122168003525  0.3326622182850292  0.4994168790211886
  0.1667199154511099  0.4993760159038889  0.4996518738387329
  0.1667355564377620  0.6660564898092889  0.4997909968432909
  0.1667945442660426  0.8327458897162198  0.4996864096392200
  0.3334997002031828 -0.0005912296178472  0.4995880951043080
  0.3334247517913532  0.1660408587908144  0.4993808566019582
  0.3333516174268914  0.3326500166572053  0.4992629108522825
  0.3332602276516088  0.4992587940280968  0.4992649412029121
  0.3333698388968133  0.6660089949805247  0.4998070601236406
  0.3334521620899982  0.8327164528876627  0.4997706703845063
  0.5001331581967267 -0.0006153068047874  0.4995938181317198
  0.5001381431700820  0.1660782127432384  0.4994586579042425
  0.5000609292092374  0.3326873681213191  0.4993220395018871
  0.5000013147172406  0.4992523422358712  0.4991209109464268
  0.4999458510506238  0.6658904122376044  0.4997154448690262
  0.5001259666236355  0.8327209816213673  0.4995766826709771
  0.6667514017846308 -0.0006407795782379  0.4995652132015344
  0.6667815520239537  0.1660591465077816  0.4995220691946586
  0.6667742688954472  0.3327486301593366  0.4994299424220262
  0.6666782911229352  0.4993715209733265  0.4994493272608184
  0.6666117183992264  0.6659634326116605  0.4995622519556692
  0.6666817801835275  0.8327172084526807  0.4994829758583937
  0.8333981579093214 -0.0006382298726235  0.4995453449608671
  0.8334103842356994  0.1660717583546128  0.4995578359965539
  0.8334251579811627  0.3327599305322800  0.4995336952367860
  0.8334048085070436  0.4994460110863818  0.4995709985579488
  0.8333355900953195  0.6660646680835557  0.4996255006008831
  0.8333131215676675  0.8326769032070738  0.4995926390843439
  0.1112165043531189  0.0549799206163373  0.5853460187697034
  0.1112224236801731  0.2215749851805631  0.5853014729404896
  0.1112048050925648  0.3881723128588896  0.5854135289532215
  0.1111719580965823  0.5548848847922859  0.5856001496739501
  0.1111849078458049  0.7216579540995306  0.5856171565209022
  0.1112091540183460  0.8883317130634462  0.5855036646864133
  0.2779285475410889  0.0550498288006612  0.5853719149893115
  0.2778524390116815  0.2216240910912691  0.5851870910939354
  0.2778615425098841  0.3882036326888733  0.5852265320230405
  0.2779234769234020  0.5547863587846736  0.5855727465272483
  0.2778303985287056  0.7216253976115524  0.5857111354832962
  0.2779453249456310  0.8883859834132166  0.5855666007151902
  0.4446430468087949  0.0550362514757885  0.5854177755315906
  0.4445273791948295  0.2216603472453877  0.5852741273406993
  0.4444422479619501  0.3882261284849203  0.5851257349611220
  0.4442409511533466  0.5543185551070002  0.5849104668573951
  0.4445345445561804  0.7216923592104330  0.5854875029924311
  0.4446554366517070  0.8882943831062265  0.5855607805014855
  0.6112716994764001  0.0549741351440800  0.5854422537900744
  0.6112503133436755  0.2216751125237814  0.5853323274013577
  0.6111017220180646  0.3882203202192452  0.5852582533413058
  0.6108992119520721  0.5547705223378779  0.5853423516046496
  0.6112257774184333  0.7216406032717190  0.5853398443023203
  0.6112177300995308  0.8882564462926624  0.5854929005133049
  0.7778873193331743  0.0549642276248711  0.5854436235944207
  0.7778425101801485  0.2216533612482241  0.5854280249944580
  0.7778123226292885  0.3882979442637440  0.5853887707768547
  0.7777133497266623  0.5549159014077721  0.5854342760976365
  0.7777125300456956  0.7215893158865376  0.5855026166496687
  0.7777714452336381  0.8882666339860666  0.5854481596447259
  0.9445482098844795  0.0549585055610754  0.5853796109042561
  0.9445317380809970  0.2215943179640369  0.5854314179403863
  0.9444942879089609  0.3882275402227459  0.5854530545193227
  0.9444761902105880  0.5549590777810595  0.5855091567076699
  0.9444549296411513  0.7216195302199434  0.5855295780038509
  0.9444666383556903  0.8882703754311344  0.5854410706724421
  0.1111326993408904  0.0548184890247721  0.4135922748063486
  0.1111155929703210  0.2215475320128841  0.4135200556474604
  0.1111636140821607  0.3883286899594552  0.4136563920250397
  0.1112271757079574  0.5550323165676316  0.4138298056174340
  0.1112498207191715  0.7216262889560836  0.4138258674898649
  0.1111922353838487  0.8881781230554221  0.4137264705735422
  0.2778704567711056  0.0548375425154177  0.4136135067113718
  0.2777642786306428  0.2214736298450977  0.4134340991056414
  0.2776920069907956  0.3881510752079651  0.4133897735325874
  0.2777491484314202  0.5550821263004255  0.4136993236274012
  0.2778299896482220  0.7216032424603942  0.4139460987866138
  0.2779244461346573  0.8882160948368767  0.4138003092808486
  0.4446066690422578  0.0549103243024201  0.4136649387167078
  0.4445430160316323  0.2215401601829230  0.4134980876084242
  0.4444220918684176  0.3880969053294679  0.4133023401202019
  0.4444383289728354  0.5550244766064345  0.4134307524203950
  0.4443938567403865  0.7215019382314088  0.4138359285762633
  0.4444623967274902  0.8881909297527638  0.4137729749368189
  0.6111982600434870  0.0548946979626516  0.4136706482152948
  0.6112717701719460  0.2216086045929040  0.4135684866920142
  0.6112473093060006  0.3883002825761351  0.4135068852558964
  0.6112862404938777  0.5550338383438824  0.4134698421212870
  0.6110371693063595  0.7215105544437117  0.4137010136175441
  0.6111236577836991  0.8882052304246398  0.4136281434730021
  0.7778525671779086  0.0549434702381670  0.4136938987447108
  0.7778786387840758  0.2216435582936864  0.4136466189813026
  0.7779473556169897  0.3883832278808310  0.4136279858543956
  0.7778612472271863  0.5550209529026380  0.4136711942065814
  0.7777549359116929  0.7215810687783695  0.4137331373769250
  0.7778022202080238  0.8882281621356615  0.4136526684205428
  0.9444876026075220  0.0549049950455925  0.4136189373335349
  0.9444993074273224  0.2216316714462770  0.4136712750214272
  0.9445883038963691  0.3883722061376125  0.4136960892059591
  0.9445811127637355  0.5550273188508467  0.4137531027278659
  0.9444909560602190  0.7215987790637384  0.4137863562412541
  0.9444256074940152  0.8881672701469998  0.4137090560791605
  0.4310493981840022  0.6351118800998472  0.7590031310089331
  0.5350895128817788  0.6448766522591748  0.7585548274234776
 
  0.00000000E+00  0.00000000E+00  0.00000000E+00
  0.00000000E+00  0.00000000E+00  0.00000000E+00
  0.00000000E+00  0.00000000E+00  0.00000000E+00
  0.00000000E+00  0.00000000E+00  0.00000000E+00
  0.00000000E+00  0.00000000E+00  0.00000000E+00
  0.00000000E+00  0.00000000E+00  0.00000000E+00
  0.00000000E+00  0.00000000E+00  0.00000000E+00
  0.00000000E+00  0.00000000E+00  0.00000000E+00
  0.00000000E+00  0.00000000E+00  0.00000000E+00
  0.00000000E+00  0.00000000E+00  0.00000000E+00
  0.00000000E+00  0.00000000E+00  0.00000000E+00
  0.00000000E+00  0.00000000E+00  0.00000000E+00
  0.00000000E+00  0.00000000E+00  0.00000000E+00
  0.00000000E+00  0.00000000E+00  0.00000000E+00
  0.00000000E+00  0.00000000E+00  0.00000000E+00
  0.00000000E+00  0.00000000E+00  0.00000000E+00
  0.00000000E+00  0.00000000E+00  0.00000000E+00
  0.00000000E+00  0.00000000E+00  0.00000000E+00
  0.00000000E+00  0.00000000E+00  0.00000000E+00
  0.00000000E+00  0.00000000E+00  0.00000000E+00
  0.00000000E+00  0.00000000E+00  0.00000000E+00
  0.00000000E+00  0.00000000E+00  0.00000000E+00
  0.00000000E+00  0.00000000E+00  0.00000000E+00
  0.00000000E+00  0.00000000E+00  0.00000000E+00
  0.00000000E+00  0.00000000E+00  0.00000000E+00
  0.00000000E+00  0.00000000E+00  0.00000000E+00
  0.00000000E+00  0.00000000E+00  0.00000000E+00
  0.00000000E+00  0.00000000E+00  0.00000000E+00
  0.00000000E+00  0.00000000E+00  0.00000000E+00
  0.00000000E+00  0.00000000E+00  0.00000000E+00
  0.00000000E+00  0.00000000E+00  0.00000000E+00
  0.00000000E+00  0.00000000E+00  0.00000000E+00
  0.00000000E+00  0.00000000E+00  0.00000000E+00
  0.00000000E+00  0.00000000E+00  0.00000000E+00
  0.00000000E+00  0.00000000E+00  0.00000000E+00
  0.00000000E+00  0.00000000E+00  0.00000000E+00
  0.00000000E+00  0.00000000E+00  0.00000000E+00
  0.00000000E+00  0.00000000E+00  0.00000000E+00
  0.00000000E+00  0.00000000E+00  0.00000000E+00
  0.00000000E+00  0.00000000E+00  0.00000000E+00
  0.00000000E+00  0.00000000E+00  0.00000000E+00
  0.00000000E+00  0.00000000E+00  0.00000000E+00
  0.00000000E+00  0.00000000E+00  0.00000000E+00
  0.00000000E+00  0.00000000E+00  0.00000000E+00
  0.00000000E+00  0.00000000E+00  0.00000000E+00
  0.00000000E+00  0.00000000E+00  0.00000000E+00
  0.00000000E+00  0.00000000E+00  0.00000000E+00
  0.00000000E+00  0.00000000E+00  0.00000000E+00
  0.00000000E+00  0.00000000E+00  0.00000000E+00
  0.00000000E+00  0.00000000E+00  0.00000000E+00
  0.00000000E+00  0.00000000E+00  0.00000000E+00
  0.00000000E+00  0.00000000E+00  0.00000000E+00
  0.00000000E+00  0.00000000E+00  0.00000000E+00
  0.00000000E+00  0.00000000E+00  0.00000000E+00
  0.00000000E+00  0.00000000E+00  0.00000000E+00
  0.00000000E+00  0.00000000E+00  0.00000000E+00
  0.00000000E+00  0.00000000E+00  0.00000000E+00
  0.00000000E+00  0.00000000E+00  0.00000000E+00
  0.00000000E+00  0.00000000E+00  0.00000000E+00
  0.00000000E+00  0.00000000E+00  0.00000000E+00
  0.00000000E+00  0.00000000E+00  0.00000000E+00
  0.00000000E+00  0.00000000E+00  0.00000000E+00
  0.00000000E+00  0.00000000E+00  0.00000000E+00
  0.00000000E+00  0.00000000E+00  0.00000000E+00
  0.00000000E+00  0.00000000E+00  0.00000000E+00
  0.00000000E+00  0.00000000E+00  0.00000000E+00
  0.00000000E+00  0.00000000E+00  0.00000000E+00
  0.00000000E+00  0.00000000E+00  0.00000000E+00
  0.00000000E+00  0.00000000E+00  0.00000000E+00
  0.00000000E+00  0.00000000E+00  0.00000000E+00
  0.00000000E+00  0.00000000E+00  0.00000000E+00
  0.00000000E+00  0.00000000E+00  0.00000000E+00
  0.00000000E+00  0.00000000E+00  0.00000000E+00
  0.00000000E+00  0.00000000E+00  0.00000000E+00
  0.00000000E+00  0.00000000E+00  0.00000000E+00
  0.00000000E+00  0.00000000E+00  0.00000000E+00
  0.00000000E+00  0.00000000E+00  0.00000000E+00
  0.00000000E+00  0.00000000E+00  0.00000000E+00
  0.00000000E+00  0.00000000E+00  0.00000000E+00
  0.00000000E+00  0.00000000E+00  0.00000000E+00
  0.00000000E+00  0.00000000E+00  0.00000000E+00
  0.00000000E+00  0.00000000E+00  0.00000000E+00
  0.00000000E+00  0.00000000E+00  0.00000000E+00
  0.00000000E+00  0.00000000E+00  0.00000000E+00
  0.00000000E+00  0.00000000E+00  0.00000000E+00
  0.00000000E+00  0.00000000E+00  0.00000000E+00
  0.00000000E+00  0.00000000E+00  0.00000000E+00
  0.00000000E+00  0.00000000E+00  0.00000000E+00
  0.00000000E+00  0.00000000E+00  0.00000000E+00
  0.00000000E+00  0.00000000E+00  0.00000000E+00
  0.00000000E+00  0.00000000E+00  0.00000000E+00
  0.00000000E+00  0.00000000E+00  0.00000000E+00
  0.00000000E+00  0.00000000E+00  0.00000000E+00
  0.00000000E+00  0.00000000E+00  0.00000000E+00
  0.00000000E+00  0.00000000E+00  0.00000000E+00
  0.00000000E+00  0.00000000E+00  0.00000000E+00
  0.00000000E+00  0.00000000E+00  0.00000000E+00
  0.00000000E+00  0.00000000E+00  0.00000000E+00
  0.00000000E+00  0.00000000E+00  0.00000000E+00
  0.00000000E+00  0.00000000E+00  0.00000000E+00
  0.00000000E+00  0.00000000E+00  0.00000000E+00
  0.00000000E+00  0.00000000E+00  0.00000000E+00
  0.00000000E+00  0.00000000E+00  0.00000000E+00
  0.00000000E+00  0.00000000E+00  0.00000000E+00
  0.00000000E+00  0.00000000E+00  0.00000000E+00
  0.00000000E+00  0.00000000E+00  0.00000000E+00
  0.00000000E+00  0.00000000E+00  0.00000000E+00
  0.00000000E+00  0.00000000E+00  0.00000000E+00
  0.00000000E+00  0.00000000E+00  0.00000000E+00
  0.00000000E+00  0.00000000E+00  0.00000000E+00
