New structure                           
   1.00000000000000     
    19.1043987273999996    0.0000000000000000    0.0000000000000000
    -9.5521993636999998   16.5448946220000010    0.0000000000000000
     0.0000000000000000    0.0000000000000000   25.0000000000000000
   Li   S    Mo
     2    74    36
Direct
  0.4433465139756854  0.5516414956903644  0.5201026413948752
  0.6377134049531602  0.5456425691209729  0.5161959576449635
  0.1097303894237571  0.0538023900846980  0.4256439938386735
  0.1097152917472938  0.2204281400373158  0.4256289781144028
  0.1097579409119626  0.3870198288951870  0.4256690271960765
  0.1097023102018629  0.5537422702913243  0.4256935956997547
  0.1097008832391471  0.7204226942625936  0.4256733247713417
  0.1097232337449143  0.8870996452230790  0.4256674082353642
  0.2764453046202269  0.0537983116581361  0.4256824554019192
  0.2765855435774268  0.2206270707287285  0.4256468460714850
  0.2767194095274967  0.3872790581389408  0.4254489916644324
  0.2765307411418481  0.5536953630623905  0.4254924270231648
  0.2765787175901785  0.7203856697915731  0.4255687551870588
  0.2764549755921354  0.8871271370766199  0.4256562544371124
  0.4431136895497475  0.0538490525169782  0.4256304159524448
  0.4430864748892370  0.2206362454632777  0.4256493209677452
  0.4434465534439905  0.3874973807178914  0.4258375884347735
  0.4431141080421738  0.5536576890399675  0.4244366888373637
  0.4435991074702850  0.7202311894920790  0.4253072559588306
  0.4432059545630259  0.8871022637321915  0.4255813843960684
  0.6097384712846657  0.0536382091953146  0.4255701859693612
  0.6097585162134175  0.2205491683058748  0.4255759788656521
  0.6096632885146696  0.3875929738458908  0.4252632595837797
  0.6098114814977196  0.5537408691993591  0.4241195144184918
  0.6098480759927390  0.7198449148332691  0.4254298235580246
  0.6098989667903811  0.8868423744041326  0.4253824614894939
  0.7763190777636971  0.0535669700798345  0.4255122047539187
  0.7762637024775434  0.2202591406590408  0.4256357675306007
  0.7761989235252102  0.3870138617694616  0.4255800292081308
  0.7757717642334371  0.5536628287964190  0.4252944144675910
  0.7753890225951927  0.7199230006730850  0.4251934279967152
  0.7760851897901955  0.8868491529108506  0.4253532423056545
  0.9429102137496931  0.0536160623830242  0.4255869334961558
  0.9429724418510822  0.2202698782240729  0.4256763209919340
  0.9429811687184334  0.3869998192053600  0.4257357384674427
  0.9429854740292002  0.5537275247232702  0.4256779655722562
  0.9426903443484369  0.7203454125434815  0.4255168773219761
  0.9428166050699223  0.8869773788518119  0.4255698162905855
  0.1097801613107698  0.0537893060630015  0.3011141269532656
  0.1096610232954626  0.2203437445757190  0.3010925547318379
  0.1096112180681067  0.3870247940965635  0.3011384235146051
  0.1096004355442704  0.5536989393958173  0.3011575374737961
  0.1096941591485109  0.7203922191479264  0.3011456271495563
  0.1097903698669917  0.8871389063954934  0.3011404820299818
  0.2764045151056529  0.0537580619970461  0.3011195085374680
  0.2763565774592061  0.2203204877216476  0.3010794252697144
  0.2762222648425087  0.3867194660869385  0.3008564113340100
  0.2759714106170806  0.5537651911226877  0.3008321550026500
  0.2763585917296863  0.7204433607377971  0.3011114833822021
  0.2764092658599399  0.8871116944681932  0.3011129848159949
  0.4430384955908215  0.0538135993077219  0.3010928224770617
  0.4429283819292912  0.2202722018377601  0.3010576678524985
  0.4427924000193906  0.3865301361631663  0.3003103359087547
  0.4429406599100760  0.5536737031698911  0.3007963709935103
  0.4430567873755997  0.7206308108205310  0.3008007203946318
  0.4430320410816248  0.8871339230955989  0.3010495611875642
  0.6096872418679041  0.0537840779261274  0.3010223587333099
  0.6096564273851749  0.2202887637896798  0.3010250160616084
  0.6093146594479546  0.3864209618447080  0.3005526983009799
  0.6094534287516560  0.5535633520101004  0.3002723726366681
  0.6098186316257107  0.7208908857195996  0.2998835958026028
  0.6096631631683843  0.8872344247813141  0.3008172833838144
  0.7764375481383474  0.0538138578697788  0.3009754786943097
  0.7763832694892695  0.2204289479063994  0.3011109248403134
  0.7764979054189013  0.3870555854258801  0.3010660927998963
  0.7770164531996941  0.5538420006122895  0.3006170360984447
  0.7768061767717845  0.7207457830619486  0.3005123830511588
  0.7766217048562779  0.8872118843796476  0.3007888102982261
  0.9431492829110267  0.0537962607149939  0.3010159688367923
  0.9430568427887489  0.2204468044830985  0.3011302933766993
  0.9430475005357062  0.3870408957157535  0.3011896183088282
  0.9431175091035379  0.5537079107620300  0.3011383869796374
  0.9432194492237567  0.7205126722172457  0.3010636102602925
  0.9431715678621898  0.8871393876435896  0.3010461929182958
  0.5092528015038277  0.4870530974224023  0.5477394928563845
  0.5753138576405663  0.6147073671759319  0.5446538600338576
  0.9986092270823288  0.9981916454549995  0.3633475075595464
  0.9985810395798651  0.1648181967105598  0.3633649955449038
  0.9985774352235737  0.3314792894365288  0.3634531754288987
  0.9985655118215112  0.4981438321027285  0.3634662307130842
  0.9985553761341862  0.6648310611005567  0.3634051351440934
  0.9986127489360901  0.8315618361628755  0.3633700994220148
  0.1653237541867216  0.9982319354151783  0.3634111255752160
  0.1652947100017955  0.1649271756831391  0.3633795576901531
  0.1652648616406258  0.3314652941563446  0.3633176120379301
  0.1651901513228384  0.4981583824040207  0.3634032179164762
  0.1652690329300065  0.6648365071666686  0.3634110094457976
  0.1652939408090847  0.8315335099522732  0.3634037184352635
  0.3319621545075501  0.9982301171850317  0.3633906671307353
  0.3319415654331788  0.1648680178578251  0.3633905174764084
  0.3324517511030096  0.3316601592847842  0.3631594746435117
  0.3313240907565677  0.4979550343089444  0.3627979523402498
  0.3319942589658725  0.6647443823478338  0.3632141398185115
  0.3320028270278311  0.8315666254229163  0.3633682539173841
  0.4986151067442289  0.9982248037499964  0.3633332291683443
  0.4986580344424789  0.1649518276858039  0.3633592776073364
  0.4982815130626049  0.3316548485236833  0.3631512272944201
  0.4981057649630620  0.4969236914524540  0.3628559141211370
  0.4996834615356702  0.6656486453588828  0.3626367349244769
  0.4986906127028602  0.8315650512785004  0.3632325880754225
  0.6652969709269421  0.9981755347500508  0.3632076363239285
  0.6652321227926420  0.1648283081020663  0.3633353504639520
  0.6651882236177693  0.3314905011283407  0.3631776727746179
  0.6654652403092617  0.4979043756677946  0.3621824676191888
  0.6651276407823811  0.6655329937987069  0.3622067588983130
  0.6651632792034240  0.8312072974308018  0.3627860628090586
  0.8319464732595411  0.9981768367649010  0.3631876707378823
  0.8319135049493258  0.1648144661002865  0.3633440191118550
  0.8319066900244597  0.3314798731640521  0.3634208053142003
  0.8319685953534520  0.4981425064652225  0.3633514202203281
  0.8317470543000078  0.6648103416087275  0.3630492247135348
  0.8318613364705140  0.8314583245227122  0.3631645377849204
 
  0.00000000E+00  0.00000000E+00  0.00000000E+00
  0.00000000E+00  0.00000000E+00  0.00000000E+00
  0.00000000E+00  0.00000000E+00  0.00000000E+00
  0.00000000E+00  0.00000000E+00  0.00000000E+00
  0.00000000E+00  0.00000000E+00  0.00000000E+00
  0.00000000E+00  0.00000000E+00  0.00000000E+00
  0.00000000E+00  0.00000000E+00  0.00000000E+00
  0.00000000E+00  0.00000000E+00  0.00000000E+00
  0.00000000E+00  0.00000000E+00  0.00000000E+00
  0.00000000E+00  0.00000000E+00  0.00000000E+00
  0.00000000E+00  0.00000000E+00  0.00000000E+00
  0.00000000E+00  0.00000000E+00  0.00000000E+00
  0.00000000E+00  0.00000000E+00  0.00000000E+00
  0.00000000E+00  0.00000000E+00  0.00000000E+00
  0.00000000E+00  0.00000000E+00  0.00000000E+00
  0.00000000E+00  0.00000000E+00  0.00000000E+00
  0.00000000E+00  0.00000000E+00  0.00000000E+00
  0.00000000E+00  0.00000000E+00  0.00000000E+00
  0.00000000E+00  0.00000000E+00  0.00000000E+00
  0.00000000E+00  0.00000000E+00  0.00000000E+00
  0.00000000E+00  0.00000000E+00  0.00000000E+00
  0.00000000E+00  0.00000000E+00  0.00000000E+00
  0.00000000E+00  0.00000000E+00  0.00000000E+00
  0.00000000E+00  0.00000000E+00  0.00000000E+00
  0.00000000E+00  0.00000000E+00  0.00000000E+00
  0.00000000E+00  0.00000000E+00  0.00000000E+00
  0.00000000E+00  0.00000000E+00  0.00000000E+00
  0.00000000E+00  0.00000000E+00  0.00000000E+00
  0.00000000E+00  0.00000000E+00  0.00000000E+00
  0.00000000E+00  0.00000000E+00  0.00000000E+00
  0.00000000E+00  0.00000000E+00  0.00000000E+00
  0.00000000E+00  0.00000000E+00  0.00000000E+00
  0.00000000E+00  0.00000000E+00  0.00000000E+00
  0.00000000E+00  0.00000000E+00  0.00000000E+00
  0.00000000E+00  0.00000000E+00  0.00000000E+00
  0.00000000E+00  0.00000000E+00  0.00000000E+00
  0.00000000E+00  0.00000000E+00  0.00000000E+00
  0.00000000E+00  0.00000000E+00  0.00000000E+00
  0.00000000E+00  0.00000000E+00  0.00000000E+00
  0.00000000E+00  0.00000000E+00  0.00000000E+00
  0.00000000E+00  0.00000000E+00  0.00000000E+00
  0.00000000E+00  0.00000000E+00  0.00000000E+00
  0.00000000E+00  0.00000000E+00  0.00000000E+00
  0.00000000E+00  0.00000000E+00  0.00000000E+00
  0.00000000E+00  0.00000000E+00  0.00000000E+00
  0.00000000E+00  0.00000000E+00  0.00000000E+00
  0.00000000E+00  0.00000000E+00  0.00000000E+00
  0.00000000E+00  0.00000000E+00  0.00000000E+00
  0.00000000E+00  0.00000000E+00  0.00000000E+00
  0.00000000E+00  0.00000000E+00  0.00000000E+00
  0.00000000E+00  0.00000000E+00  0.00000000E+00
  0.00000000E+00  0.00000000E+00  0.00000000E+00
  0.00000000E+00  0.00000000E+00  0.00000000E+00
  0.00000000E+00  0.00000000E+00  0.00000000E+00
  0.00000000E+00  0.00000000E+00  0.00000000E+00
  0.00000000E+00  0.00000000E+00  0.00000000E+00
  0.00000000E+00  0.00000000E+00  0.00000000E+00
  0.00000000E+00  0.00000000E+00  0.00000000E+00
  0.00000000E+00  0.00000000E+00  0.00000000E+00
  0.00000000E+00  0.00000000E+00  0.00000000E+00
  0.00000000E+00  0.00000000E+00  0.00000000E+00
  0.00000000E+00  0.00000000E+00  0.00000000E+00
  0.00000000E+00  0.00000000E+00  0.00000000E+00
  0.00000000E+00  0.00000000E+00  0.00000000E+00
  0.00000000E+00  0.00000000E+00  0.00000000E+00
  0.00000000E+00  0.00000000E+00  0.00000000E+00
  0.00000000E+00  0.00000000E+00  0.00000000E+00
  0.00000000E+00  0.00000000E+00  0.00000000E+00
  0.00000000E+00  0.00000000E+00  0.00000000E+00
  0.00000000E+00  0.00000000E+00  0.00000000E+00
  0.00000000E+00  0.00000000E+00  0.00000000E+00
  0.00000000E+00  0.00000000E+00  0.00000000E+00
  0.00000000E+00  0.00000000E+00  0.00000000E+00
  0.00000000E+00  0.00000000E+00  0.00000000E+00
  0.00000000E+00  0.00000000E+00  0.00000000E+00
  0.00000000E+00  0.00000000E+00  0.00000000E+00
  0.00000000E+00  0.00000000E+00  0.00000000E+00
  0.00000000E+00  0.00000000E+00  0.00000000E+00
  0.00000000E+00  0.00000000E+00  0.00000000E+00
  0.00000000E+00  0.00000000E+00  0.00000000E+00
  0.00000000E+00  0.00000000E+00  0.00000000E+00
  0.00000000E+00  0.00000000E+00  0.00000000E+00
  0.00000000E+00  0.00000000E+00  0.00000000E+00
  0.00000000E+00  0.00000000E+00  0.00000000E+00
  0.00000000E+00  0.00000000E+00  0.00000000E+00
  0.00000000E+00  0.00000000E+00  0.00000000E+00
  0.00000000E+00  0.00000000E+00  0.00000000E+00
  0.00000000E+00  0.00000000E+00  0.00000000E+00
  0.00000000E+00  0.00000000E+00  0.00000000E+00
  0.00000000E+00  0.00000000E+00  0.00000000E+00
  0.00000000E+00  0.00000000E+00  0.00000000E+00
  0.00000000E+00  0.00000000E+00  0.00000000E+00
  0.00000000E+00  0.00000000E+00  0.00000000E+00
  0.00000000E+00  0.00000000E+00  0.00000000E+00
  0.00000000E+00  0.00000000E+00  0.00000000E+00
  0.00000000E+00  0.00000000E+00  0.00000000E+00
  0.00000000E+00  0.00000000E+00  0.00000000E+00
  0.00000000E+00  0.00000000E+00  0.00000000E+00
  0.00000000E+00  0.00000000E+00  0.00000000E+00
  0.00000000E+00  0.00000000E+00  0.00000000E+00
  0.00000000E+00  0.00000000E+00  0.00000000E+00
  0.00000000E+00  0.00000000E+00  0.00000000E+00
  0.00000000E+00  0.00000000E+00  0.00000000E+00
  0.00000000E+00  0.00000000E+00  0.00000000E+00
  0.00000000E+00  0.00000000E+00  0.00000000E+00
  0.00000000E+00  0.00000000E+00  0.00000000E+00
  0.00000000E+00  0.00000000E+00  0.00000000E+00
  0.00000000E+00  0.00000000E+00  0.00000000E+00
  0.00000000E+00  0.00000000E+00  0.00000000E+00
  0.00000000E+00  0.00000000E+00  0.00000000E+00
  0.00000000E+00  0.00000000E+00  0.00000000E+00
  0.00000000E+00  0.00000000E+00  0.00000000E+00
