Li2S2                                   
   1.00000000000000     
    30.0000000000000000    0.0000000000000000    0.0000000000000000
     0.0000000000000000   30.0000000000000000    0.0000000000000000
     0.0000000000000000    0.0000000000000000   20.0000000000000000
   Li   S 
     2     2
Direct
  0.5620639999999995  0.4677429999999987  0.3772480000000016
  0.5132279999999980  0.5522550000000024  0.4525700000000015
  0.4984449999999967  0.5050370000000015  0.3701790000000003
  0.5615230000000011  0.5414850000000015  0.3701330000000027
 
  0.00000000E+00  0.00000000E+00  0.00000000E+00
  0.00000000E+00  0.00000000E+00  0.00000000E+00
  0.00000000E+00  0.00000000E+00  0.00000000E+00
  0.00000000E+00  0.00000000E+00  0.00000000E+00
