661_Li2S4                               
   1.00000000000000     
    19.1044006348000011    0.0000000000000000    0.0000000000000000
    -9.5522003174000005   16.5448962737999992    0.0000000000000000
     0.0000000000000000    0.0000000000000000   18.1270999908000014
   Mo   S    Li
    36    76     1
Direct
  0.0000980076929310  0.0016310649784299  0.4996056370069133
  0.0000844993459425  0.1682597700769123  0.4994467577473183
  0.0000683493001588  0.3348901435584456  0.4993472759335622
  0.0000694080688277  0.5015554770756789  0.4993652830828192
  0.0000548316533487  0.6682161150604150  0.4994614641221907
  0.0000404296093285  0.8349066340869675  0.4995957714721173
  0.1667478683562136  0.0016019634596703  0.4996512448120176
  0.1668442389588432  0.1683254335623940  0.4994160809463266
  0.1667896419021695  0.3348439642439569  0.4989525660945764
  0.1666789544662711  0.5015122037791545  0.4990569481796469
  0.1667458188170372  0.6681731104333376  0.4992852378273538
  0.1667223347213622  0.8348707666097799  0.4995854832228809
  0.3333762718554213  0.0016072308820619  0.4995623034837767
  0.3335121908895227  0.1683463985094466  0.4993613332691430
  0.3336176779931717  0.3351117735649539  0.4988960227415660
  0.3326923315152469  0.5011183443519861  0.4979725438407646
  0.3334841200103734  0.6682092781485613  0.4988061065781244
  0.3334244400137087  0.8349286292270837  0.4993560533552812
  0.5000617644346197  0.0016578118777904  0.4994247622226600
  0.5001028435938867  0.1682908774041091  0.4993100878900096
  0.5001986619626585  0.3349105379117888  0.4987158745411177
  0.5004629928913581  0.5012504863220428  0.4984944000886192
  0.5005215140644385  0.6690812108332842  0.4983834673722906
  0.5000828866421297  0.8350649206422706  0.4991570284165255
  0.6667339875634171  0.0016786983409347  0.4993912398765135
  0.6667418126847334  0.1683110897014656  0.4994009489971143
  0.6667837553084811  0.3349560162401421  0.4991219039146475
  0.6668550847948583  0.5016038695198677  0.4986839510500997
  0.6665869099324118  0.6682261436624632  0.4989293518899407
  0.6667736288083913  0.8349859930727014  0.4991024714377016
  0.8333845456550795  0.0016602321740824  0.4994740206162270
  0.8333786935423416  0.1682813736602278  0.4994798764524414
  0.8334310445473045  0.3349529313970160  0.4993932892183187
  0.8334217171878875  0.5016008972672583  0.4992476455968689
  0.8333404938772246  0.6682274460665824  0.4992526603787326
  0.8333616723267130  0.8349713244411577  0.4994090740540013
  0.1112932766395483  0.0573249717018433  0.5854638779514633
  0.1113686564349785  0.2240013660786747  0.5851951730113699
  0.1113665016395717  0.3904490524828364  0.5850058006843140
  0.1112725751094877  0.5570425740123534  0.5851176415921305
  0.1112133112685957  0.7236434246526944  0.5853242685962777
  0.1111517377792439  0.8904230938168451  0.5855206446988583
  0.2779541008769558  0.0573655511503008  0.5854340867579932
  0.2782092102462651  0.2242851335055810  0.5851637136117916
  0.2780361190381383  0.3906342420948817  0.5847119344056635
  0.2780157032703600  0.5569644389585426  0.5845786265372277
  0.2780011972919082  0.7235820359120810  0.5849976221127834
  0.2779019066405902  0.8904338404713273  0.5853904530989849
  0.4445669593661699  0.0572763337109687  0.5853431300184156
  0.4447473483242843  0.2241540050983014  0.5850594237373954
  0.4448582239918261  0.3905342821112467  0.5845682779619714
  0.4443641402330220  0.5572863046964617  0.5825416064509983
  0.4445851466317620  0.7237949878452142  0.5847342917440557
  0.4445610256632231  0.8904855144490342  0.5852021062176197
  0.6111818552233969  0.0572093921980814  0.5852975359197332
  0.6112294372607079  0.2239870820978761  0.5851732053393534
  0.6111784242052749  0.3906402727158251  0.5848028345694792
  0.6112086330845730  0.5569673922626823  0.5845567027242314
  0.6110874591255527  0.7237566385370720  0.5849004416289683
  0.6111634689043574  0.8904461767903913  0.5851048581233086
  0.7777639074152510  0.0571784031219288  0.5853562650786301
  0.7778264000141272  0.2238791963366493  0.5853339970029984
  0.7777636183732589  0.3905385856779545  0.5851525332913248
  0.7775995128607927  0.5570339508474780  0.5849894166384187
  0.7774884651172124  0.7236058408563539  0.5850967445417389
  0.7776758391389796  0.8904488090116666  0.5852470290358320
  0.9444689127471907  0.0571992983668918  0.5854194188972046
  0.9445500676293400  0.2238502757342996  0.5853158444622074
  0.9445739730638846  0.3904822513120644  0.5852761830386114
  0.9444109849211394  0.5570441570598796  0.5852766149489979
  0.9442992336533429  0.7236233999505589  0.5853286645556726
  0.9444024705088806  0.8904369384309754  0.5854250525662920
  0.1111992091728474  0.0570671694034245  0.4136954157207015
  0.1110336955560305  0.2235007122402533  0.4133922778108803
  0.1109761629518222  0.3902983552664461  0.4132491612994758
  0.1110416377419746  0.5571090617723023  0.4133379126540368
  0.1111563750589698  0.7238498397266426  0.4135792922231191
  0.1111904527029281  0.8904883954598217  0.4137698487907791
  0.2777425959094508  0.0570496847663410  0.4136812707137616
  0.2778157759842312  0.2236105782395966  0.4133763143469054
  0.2775259578281987  0.3898983422565460  0.4125790213883367
  0.2774150390590983  0.5571540386403114  0.4126708028948668
  0.2777707828756066  0.7239341376423867  0.4132966314797985
  0.2777494817967877  0.8905230102461907  0.4136435394312637
  0.4443772817977306  0.0570907037703853  0.4135745315919678
  0.4444144448281769  0.2235296064992299  0.4132366724359294
  0.4445838027312333  0.3902088337939741  0.4126421467337016
  0.4447210960849617  0.5572474192420058  0.4127422211637988
  0.4445938484468031  0.7243224015475961  0.4128016539163606
  0.4444982777900412  0.8906963693414578  0.4134264307115046
  0.6111733612142864  0.0572341576800949  0.4135270117173800
  0.6111971560574040  0.2237220562167776  0.4133850964158452
  0.6113769184261688  0.3903734344591132  0.4129097574805423
  0.6115047597051795  0.5572516875029876  0.4126695381400540
  0.6116252974964742  0.7242587319391460  0.4127796207225651
  0.6112899393806945  0.8907657883715331  0.4133505986173995
  0.7778644380514406  0.0572322364934214  0.4135688016807282
  0.7778630748318384  0.2238196348993715  0.4135590482563822
  0.7779849546960166  0.3904792408932362  0.4133666066192025
  0.7782005275929209  0.5572977983562253  0.4131409100190297
  0.7780236284766643  0.7240082181498873  0.4133405589045081
  0.7780471029891964  0.8907154835134972  0.4134508136228480
  0.9445311767285367  0.0571205475105696  0.4136586406060327
  0.9444160239443801  0.2237194778133476  0.4135613583929750
  0.9445007733876380  0.3904445577346752  0.4134935234288261
  0.9445922618074384  0.5571875975837107  0.4134908914324994
  0.9446196952754733  0.7239205033656742  0.4135754486274806
  0.9446276471526077  0.8905839386134990  0.4136829397147672
  0.3941123733433944  0.4070065227245201  0.7630986844106428
  0.3734732546486794  0.4725633998603615  0.8335062652190161
  0.4945111783921722  0.5955165801121982  0.8319121490221110
  0.5604082000361195  0.5760631247985835  0.7609856269213630
  0.4292951093673007  0.5349772453505032  0.7126287754379769
 
  0.00000000E+00  0.00000000E+00  0.00000000E+00
  0.00000000E+00  0.00000000E+00  0.00000000E+00
  0.00000000E+00  0.00000000E+00  0.00000000E+00
  0.00000000E+00  0.00000000E+00  0.00000000E+00
  0.00000000E+00  0.00000000E+00  0.00000000E+00
  0.00000000E+00  0.00000000E+00  0.00000000E+00
  0.00000000E+00  0.00000000E+00  0.00000000E+00
  0.00000000E+00  0.00000000E+00  0.00000000E+00
  0.00000000E+00  0.00000000E+00  0.00000000E+00
  0.00000000E+00  0.00000000E+00  0.00000000E+00
  0.00000000E+00  0.00000000E+00  0.00000000E+00
  0.00000000E+00  0.00000000E+00  0.00000000E+00
  0.00000000E+00  0.00000000E+00  0.00000000E+00
  0.00000000E+00  0.00000000E+00  0.00000000E+00
  0.00000000E+00  0.00000000E+00  0.00000000E+00
  0.00000000E+00  0.00000000E+00  0.00000000E+00
  0.00000000E+00  0.00000000E+00  0.00000000E+00
  0.00000000E+00  0.00000000E+00  0.00000000E+00
  0.00000000E+00  0.00000000E+00  0.00000000E+00
  0.00000000E+00  0.00000000E+00  0.00000000E+00
  0.00000000E+00  0.00000000E+00  0.00000000E+00
  0.00000000E+00  0.00000000E+00  0.00000000E+00
  0.00000000E+00  0.00000000E+00  0.00000000E+00
  0.00000000E+00  0.00000000E+00  0.00000000E+00
  0.00000000E+00  0.00000000E+00  0.00000000E+00
  0.00000000E+00  0.00000000E+00  0.00000000E+00
  0.00000000E+00  0.00000000E+00  0.00000000E+00
  0.00000000E+00  0.00000000E+00  0.00000000E+00
  0.00000000E+00  0.00000000E+00  0.00000000E+00
  0.00000000E+00  0.00000000E+00  0.00000000E+00
  0.00000000E+00  0.00000000E+00  0.00000000E+00
  0.00000000E+00  0.00000000E+00  0.00000000E+00
  0.00000000E+00  0.00000000E+00  0.00000000E+00
  0.00000000E+00  0.00000000E+00  0.00000000E+00
  0.00000000E+00  0.00000000E+00  0.00000000E+00
  0.00000000E+00  0.00000000E+00  0.00000000E+00
  0.00000000E+00  0.00000000E+00  0.00000000E+00
  0.00000000E+00  0.00000000E+00  0.00000000E+00
  0.00000000E+00  0.00000000E+00  0.00000000E+00
  0.00000000E+00  0.00000000E+00  0.00000000E+00
  0.00000000E+00  0.00000000E+00  0.00000000E+00
  0.00000000E+00  0.00000000E+00  0.00000000E+00
  0.00000000E+00  0.00000000E+00  0.00000000E+00
  0.00000000E+00  0.00000000E+00  0.00000000E+00
  0.00000000E+00  0.00000000E+00  0.00000000E+00
  0.00000000E+00  0.00000000E+00  0.00000000E+00
  0.00000000E+00  0.00000000E+00  0.00000000E+00
  0.00000000E+00  0.00000000E+00  0.00000000E+00
  0.00000000E+00  0.00000000E+00  0.00000000E+00
  0.00000000E+00  0.00000000E+00  0.00000000E+00
  0.00000000E+00  0.00000000E+00  0.00000000E+00
  0.00000000E+00  0.00000000E+00  0.00000000E+00
  0.00000000E+00  0.00000000E+00  0.00000000E+00
  0.00000000E+00  0.00000000E+00  0.00000000E+00
  0.00000000E+00  0.00000000E+00  0.00000000E+00
  0.00000000E+00  0.00000000E+00  0.00000000E+00
  0.00000000E+00  0.00000000E+00  0.00000000E+00
  0.00000000E+00  0.00000000E+00  0.00000000E+00
  0.00000000E+00  0.00000000E+00  0.00000000E+00
  0.00000000E+00  0.00000000E+00  0.00000000E+00
  0.00000000E+00  0.00000000E+00  0.00000000E+00
  0.00000000E+00  0.00000000E+00  0.00000000E+00
  0.00000000E+00  0.00000000E+00  0.00000000E+00
  0.00000000E+00  0.00000000E+00  0.00000000E+00
  0.00000000E+00  0.00000000E+00  0.00000000E+00
  0.00000000E+00  0.00000000E+00  0.00000000E+00
  0.00000000E+00  0.00000000E+00  0.00000000E+00
  0.00000000E+00  0.00000000E+00  0.00000000E+00
  0.00000000E+00  0.00000000E+00  0.00000000E+00
  0.00000000E+00  0.00000000E+00  0.00000000E+00
  0.00000000E+00  0.00000000E+00  0.00000000E+00
  0.00000000E+00  0.00000000E+00  0.00000000E+00
  0.00000000E+00  0.00000000E+00  0.00000000E+00
  0.00000000E+00  0.00000000E+00  0.00000000E+00
  0.00000000E+00  0.00000000E+00  0.00000000E+00
  0.00000000E+00  0.00000000E+00  0.00000000E+00
  0.00000000E+00  0.00000000E+00  0.00000000E+00
  0.00000000E+00  0.00000000E+00  0.00000000E+00
  0.00000000E+00  0.00000000E+00  0.00000000E+00
  0.00000000E+00  0.00000000E+00  0.00000000E+00
  0.00000000E+00  0.00000000E+00  0.00000000E+00
  0.00000000E+00  0.00000000E+00  0.00000000E+00
  0.00000000E+00  0.00000000E+00  0.00000000E+00
  0.00000000E+00  0.00000000E+00  0.00000000E+00
  0.00000000E+00  0.00000000E+00  0.00000000E+00
  0.00000000E+00  0.00000000E+00  0.00000000E+00
  0.00000000E+00  0.00000000E+00  0.00000000E+00
  0.00000000E+00  0.00000000E+00  0.00000000E+00
  0.00000000E+00  0.00000000E+00  0.00000000E+00
  0.00000000E+00  0.00000000E+00  0.00000000E+00
  0.00000000E+00  0.00000000E+00  0.00000000E+00
  0.00000000E+00  0.00000000E+00  0.00000000E+00
  0.00000000E+00  0.00000000E+00  0.00000000E+00
  0.00000000E+00  0.00000000E+00  0.00000000E+00
  0.00000000E+00  0.00000000E+00  0.00000000E+00
  0.00000000E+00  0.00000000E+00  0.00000000E+00
  0.00000000E+00  0.00000000E+00  0.00000000E+00
  0.00000000E+00  0.00000000E+00  0.00000000E+00
  0.00000000E+00  0.00000000E+00  0.00000000E+00
  0.00000000E+00  0.00000000E+00  0.00000000E+00
  0.00000000E+00  0.00000000E+00  0.00000000E+00
  0.00000000E+00  0.00000000E+00  0.00000000E+00
  0.00000000E+00  0.00000000E+00  0.00000000E+00
  0.00000000E+00  0.00000000E+00  0.00000000E+00
  0.00000000E+00  0.00000000E+00  0.00000000E+00
  0.00000000E+00  0.00000000E+00  0.00000000E+00
  0.00000000E+00  0.00000000E+00  0.00000000E+00
  0.00000000E+00  0.00000000E+00  0.00000000E+00
  0.00000000E+00  0.00000000E+00  0.00000000E+00
  0.00000000E+00  0.00000000E+00  0.00000000E+00
  0.00000000E+00  0.00000000E+00  0.00000000E+00
  0.00000000E+00  0.00000000E+00  0.00000000E+00
  0.00000000E+00  0.00000000E+00  0.00000000E+00
