661_Li2S5                               
   1.00000000000000     
    19.1044006348000011    0.0000000000000000    0.0000000000000000
    -9.5522003174000005   16.5448962737999992    0.0000000000000000
     0.0000000000000000    0.0000000000000000   18.1270999908000014
   Mo   S    Li
    36    77     1
Direct
  0.0003661782394871  0.0004731097008622  0.4976091025138707
  0.0003608036660388  0.1671515787367563  0.4976354918046871
  0.0003785075986431  0.3338267404496161  0.4976059733093224
  0.0003747547809044  0.5004702791796842  0.4974915682169685
  0.0003141995814346  0.6671048326112176  0.4976456476338463
  0.0003182699707707  0.8337853556760831  0.4976862975943952
  0.1670693332410836  0.0005239447959103  0.4976836442565195
  0.1670179363336650  0.1671485345156826  0.4975372454524230
  0.1669830057834716  0.3338169146403567  0.4974882025174821
  0.1669978264324601  0.5004902859509217  0.4975380430198605
  0.1670187578414558  0.6671493646853459  0.4976652594496244
  0.1670479881030841  0.8338416550202450  0.4977845405534493
  0.3337776393435785  0.0005692377573247  0.4978226127800430
  0.3337948984733975  0.1672928103319121  0.4976452369030186
  0.3335492046525292  0.3337595107730813  0.4971519091564062
  0.3336003441524152  0.5004638674389184  0.4973222750390549
  0.3336900888177718  0.6671290225904039  0.4975643232001635
  0.3337426811801358  0.8338323662860464  0.4977993355224919
  0.5004198346710845  0.0005127490506561  0.4977446225044772
  0.5005066564430632  0.1672799802484908  0.4976637645790075
  0.5005265206422983  0.3340230196680681  0.4974866841235192
  0.4996789089085051  0.5002069521931121  0.4966415660602446
  0.5003312352305899  0.6670337656352388  0.4972653327142634
  0.5004267876035242  0.8338169007090876  0.4976605167721846
  0.6670889213563748  0.0005273517514963  0.4976702586079175
  0.6670978632570020  0.1671414799906052  0.4975304786489575
  0.6673012682481152  0.3337642827149611  0.4971480137703682
  0.6674881990258084  0.5003735469825525  0.4974091748344501
  0.6673967256570278  0.6677305761050347  0.4968708568685759
  0.6671050465845170  0.8339057844896194  0.4976767133302294
  0.8337340408335054  0.0005289218950152  0.4976780192032719
  0.8337406703653323  0.1671807284180725  0.4976405395627320
  0.8337673176431785  0.3338376834500737  0.4974568142580132
  0.8337215127140061  0.5004533089850997  0.4971712460151091
  0.8335554983171100  0.6670025552985474  0.4976336058134097
  0.8337606424809058  0.8338763929830543  0.4973626947556616
  0.1114769240591084  0.0560804556891548  0.5834690605782841
  0.1115343830161424  0.2227522974393396  0.5834355314483147
  0.1115220926218459  0.3894048766343243  0.5834463643211008
  0.1113947357461211  0.5559766765286068  0.5834468082939492
  0.1113823344091350  0.7226391064359600  0.5835800893123101
  0.1114348041716861  0.8894050232133300  0.5835846103396698
  0.2782260537158524  0.0562246081359697  0.5836055116637014
  0.2781756364565367  0.2229100939829392  0.5833596245606638
  0.2781715859543474  0.3893416792827911  0.5832479822417171
  0.2781467195948183  0.5559680596582313  0.5833983082265398
  0.2781269612956083  0.7226036336673843  0.5835647306458568
  0.2781981470143768  0.8893998118045308  0.5836787539515234
  0.4449751764125773  0.0562062663221436  0.5836291474846937
  0.4450692488737057  0.2230798472438388  0.5835343999191768
  0.4444685516394815  0.3894124591067157  0.5830343421731943
  0.4447068741253211  0.5559171902162549  0.5830972832343411
  0.4448891681746039  0.7225320361418361  0.5833572246584717
  0.4449066803994952  0.8893513582842588  0.5836239325878619
  0.6115716730176209  0.0561374101707034  0.5835150071401236
  0.6117637739446751  0.2229115038738132  0.5833733746833994
  0.6120412536810979  0.3892447930889513  0.5829523854235897
  0.6111083679884234  0.5561489482488097  0.5811661817240391
  0.6114419235057397  0.7225054279730687  0.5833636435964782
  0.6115409408952468  0.8894244601698195  0.5835464211498095
  0.7781843125250975  0.0561064941064623  0.5835734218797441
  0.7781812748071606  0.2228292808062740  0.5834277130716320
  0.7782396424799479  0.3894660621620772  0.5832676914062092
  0.7783639313924793  0.5558899428032956  0.5834947796468358
  0.7781528689837717  0.7227758161652406  0.5833226761825617
  0.7782812340802849  0.8893593852022961  0.5834778970100307
  0.9448645289380853  0.0560534309175885  0.5835310872067473
  0.9448592417218892  0.2227771430578107  0.5835349900808499
  0.9447760634664479  0.3894123488035461  0.5834227020621264
  0.9446346132914100  0.5558699735435099  0.5833507463404281
  0.9446386657666175  0.7225598699609893  0.5835877824904709
  0.9446975292054991  0.8893238202421071  0.5834902003017723
  0.1114700875213277  0.0559909071064391  0.4117138604718346
  0.1113839568103073  0.2226568725740034  0.4116886493045404
  0.1113914391031143  0.3893710931698932  0.4116592590795860
  0.1115027955158531  0.5561270129270459  0.4116603802954509
  0.1115033323848122  0.7227779057762198  0.4118434637607137
  0.1115092592568505  0.8893651844397129  0.4118556978195994
  0.2782208297576217  0.0560612743220385  0.4118733436426725
  0.2780099994187533  0.2225016073300618  0.4115515538906288
  0.2779086747154552  0.3893526855212080  0.4114272934998014
  0.2779977308592872  0.5560858385662156  0.4115781926814133
  0.2781457435490353  0.7228420543471513  0.4118047179723278
  0.2782109815205372  0.8894485076575073  0.4119722083998173
  0.4448316461101045  0.0560559605886531  0.4118854459423141
  0.4449218056213977  0.2227674724624644  0.4117821521523448
  0.4445843221836502  0.3889810795539485  0.4111696667989070
  0.4444621929174775  0.5560871807815108  0.4110942845406658
  0.4447980895906508  0.7228259371423930  0.4116376052302061
  0.4448067323434782  0.8894056726202099  0.4118701736733155
  0.6114359413041204  0.0559526014682024  0.4117499332838360
  0.6114316130232880  0.2224816679651051  0.4115489068945707
  0.6116345534581991  0.3893697054484360  0.4114318040458131
  0.6116524533029887  0.5560222812513688  0.4112943288582827
  0.6115331165811679  0.7230649100446765  0.4114225039940704
  0.6115268004521942  0.8894493947492524  0.4118023443186887
  0.7781853024684183  0.0560615840613575  0.4117778291143051
  0.7782107193533685  0.2226677047609875  0.4116586778853482
  0.7783672882873822  0.3893274377249661  0.4113171996439415
  0.7782842349930708  0.5561212313665718  0.4113908208615007
  0.7785421418432972  0.7229495707275623  0.4113378079013804
  0.7781436889283159  0.8895356839163665  0.4117101838527473
  0.9448093706702743  0.0560347705714241  0.4117533711126049
  0.9448345609287558  0.2226918759394506  0.4117545469364576
  0.9448916806175039  0.3893330716253411  0.4116293541040184
  0.9449926731454066  0.5561483241796215  0.4115599623353940
  0.9448207500837897  0.7226942687870619  0.4118193445175659
  0.9449693452364275  0.8894315118406454  0.4116586342513791
  0.4921014081093114  0.5471310306964350  0.7950403947517591
  0.7279719927863312  0.6104748504308554  0.7524626570774070
  0.6820832031054700  0.4948698183975211  0.7833760386110820
  0.4975987161929968  0.4492837300806737  0.8252504831804562
  0.5628606112684331  0.4263955391899011  0.7455394072145416
  0.5973002291331596  0.5752262050964835  0.7123354977123563
 
  0.00000000E+00  0.00000000E+00  0.00000000E+00
  0.00000000E+00  0.00000000E+00  0.00000000E+00
  0.00000000E+00  0.00000000E+00  0.00000000E+00
  0.00000000E+00  0.00000000E+00  0.00000000E+00
  0.00000000E+00  0.00000000E+00  0.00000000E+00
  0.00000000E+00  0.00000000E+00  0.00000000E+00
  0.00000000E+00  0.00000000E+00  0.00000000E+00
  0.00000000E+00  0.00000000E+00  0.00000000E+00
  0.00000000E+00  0.00000000E+00  0.00000000E+00
  0.00000000E+00  0.00000000E+00  0.00000000E+00
  0.00000000E+00  0.00000000E+00  0.00000000E+00
  0.00000000E+00  0.00000000E+00  0.00000000E+00
  0.00000000E+00  0.00000000E+00  0.00000000E+00
  0.00000000E+00  0.00000000E+00  0.00000000E+00
  0.00000000E+00  0.00000000E+00  0.00000000E+00
  0.00000000E+00  0.00000000E+00  0.00000000E+00
  0.00000000E+00  0.00000000E+00  0.00000000E+00
  0.00000000E+00  0.00000000E+00  0.00000000E+00
  0.00000000E+00  0.00000000E+00  0.00000000E+00
  0.00000000E+00  0.00000000E+00  0.00000000E+00
  0.00000000E+00  0.00000000E+00  0.00000000E+00
  0.00000000E+00  0.00000000E+00  0.00000000E+00
  0.00000000E+00  0.00000000E+00  0.00000000E+00
  0.00000000E+00  0.00000000E+00  0.00000000E+00
  0.00000000E+00  0.00000000E+00  0.00000000E+00
  0.00000000E+00  0.00000000E+00  0.00000000E+00
  0.00000000E+00  0.00000000E+00  0.00000000E+00
  0.00000000E+00  0.00000000E+00  0.00000000E+00
  0.00000000E+00  0.00000000E+00  0.00000000E+00
  0.00000000E+00  0.00000000E+00  0.00000000E+00
  0.00000000E+00  0.00000000E+00  0.00000000E+00
  0.00000000E+00  0.00000000E+00  0.00000000E+00
  0.00000000E+00  0.00000000E+00  0.00000000E+00
  0.00000000E+00  0.00000000E+00  0.00000000E+00
  0.00000000E+00  0.00000000E+00  0.00000000E+00
  0.00000000E+00  0.00000000E+00  0.00000000E+00
  0.00000000E+00  0.00000000E+00  0.00000000E+00
  0.00000000E+00  0.00000000E+00  0.00000000E+00
  0.00000000E+00  0.00000000E+00  0.00000000E+00
  0.00000000E+00  0.00000000E+00  0.00000000E+00
  0.00000000E+00  0.00000000E+00  0.00000000E+00
  0.00000000E+00  0.00000000E+00  0.00000000E+00
  0.00000000E+00  0.00000000E+00  0.00000000E+00
  0.00000000E+00  0.00000000E+00  0.00000000E+00
  0.00000000E+00  0.00000000E+00  0.00000000E+00
  0.00000000E+00  0.00000000E+00  0.00000000E+00
  0.00000000E+00  0.00000000E+00  0.00000000E+00
  0.00000000E+00  0.00000000E+00  0.00000000E+00
  0.00000000E+00  0.00000000E+00  0.00000000E+00
  0.00000000E+00  0.00000000E+00  0.00000000E+00
  0.00000000E+00  0.00000000E+00  0.00000000E+00
  0.00000000E+00  0.00000000E+00  0.00000000E+00
  0.00000000E+00  0.00000000E+00  0.00000000E+00
  0.00000000E+00  0.00000000E+00  0.00000000E+00
  0.00000000E+00  0.00000000E+00  0.00000000E+00
  0.00000000E+00  0.00000000E+00  0.00000000E+00
  0.00000000E+00  0.00000000E+00  0.00000000E+00
  0.00000000E+00  0.00000000E+00  0.00000000E+00
  0.00000000E+00  0.00000000E+00  0.00000000E+00
  0.00000000E+00  0.00000000E+00  0.00000000E+00
  0.00000000E+00  0.00000000E+00  0.00000000E+00
  0.00000000E+00  0.00000000E+00  0.00000000E+00
  0.00000000E+00  0.00000000E+00  0.00000000E+00
  0.00000000E+00  0.00000000E+00  0.00000000E+00
  0.00000000E+00  0.00000000E+00  0.00000000E+00
  0.00000000E+00  0.00000000E+00  0.00000000E+00
  0.00000000E+00  0.00000000E+00  0.00000000E+00
  0.00000000E+00  0.00000000E+00  0.00000000E+00
  0.00000000E+00  0.00000000E+00  0.00000000E+00
  0.00000000E+00  0.00000000E+00  0.00000000E+00
  0.00000000E+00  0.00000000E+00  0.00000000E+00
  0.00000000E+00  0.00000000E+00  0.00000000E+00
  0.00000000E+00  0.00000000E+00  0.00000000E+00
  0.00000000E+00  0.00000000E+00  0.00000000E+00
  0.00000000E+00  0.00000000E+00  0.00000000E+00
  0.00000000E+00  0.00000000E+00  0.00000000E+00
  0.00000000E+00  0.00000000E+00  0.00000000E+00
  0.00000000E+00  0.00000000E+00  0.00000000E+00
  0.00000000E+00  0.00000000E+00  0.00000000E+00
  0.00000000E+00  0.00000000E+00  0.00000000E+00
  0.00000000E+00  0.00000000E+00  0.00000000E+00
  0.00000000E+00  0.00000000E+00  0.00000000E+00
  0.00000000E+00  0.00000000E+00  0.00000000E+00
  0.00000000E+00  0.00000000E+00  0.00000000E+00
  0.00000000E+00  0.00000000E+00  0.00000000E+00
  0.00000000E+00  0.00000000E+00  0.00000000E+00
  0.00000000E+00  0.00000000E+00  0.00000000E+00
  0.00000000E+00  0.00000000E+00  0.00000000E+00
  0.00000000E+00  0.00000000E+00  0.00000000E+00
  0.00000000E+00  0.00000000E+00  0.00000000E+00
  0.00000000E+00  0.00000000E+00  0.00000000E+00
  0.00000000E+00  0.00000000E+00  0.00000000E+00
  0.00000000E+00  0.00000000E+00  0.00000000E+00
  0.00000000E+00  0.00000000E+00  0.00000000E+00
  0.00000000E+00  0.00000000E+00  0.00000000E+00
  0.00000000E+00  0.00000000E+00  0.00000000E+00
  0.00000000E+00  0.00000000E+00  0.00000000E+00
  0.00000000E+00  0.00000000E+00  0.00000000E+00
  0.00000000E+00  0.00000000E+00  0.00000000E+00
  0.00000000E+00  0.00000000E+00  0.00000000E+00
  0.00000000E+00  0.00000000E+00  0.00000000E+00
  0.00000000E+00  0.00000000E+00  0.00000000E+00
  0.00000000E+00  0.00000000E+00  0.00000000E+00
  0.00000000E+00  0.00000000E+00  0.00000000E+00
  0.00000000E+00  0.00000000E+00  0.00000000E+00
  0.00000000E+00  0.00000000E+00  0.00000000E+00
  0.00000000E+00  0.00000000E+00  0.00000000E+00
  0.00000000E+00  0.00000000E+00  0.00000000E+00
  0.00000000E+00  0.00000000E+00  0.00000000E+00
  0.00000000E+00  0.00000000E+00  0.00000000E+00
  0.00000000E+00  0.00000000E+00  0.00000000E+00
  0.00000000E+00  0.00000000E+00  0.00000000E+00
  0.00000000E+00  0.00000000E+00  0.00000000E+00
  0.00000000E+00  0.00000000E+00  0.00000000E+00
