Autosave\of\661                         
   1.00000000000000     
    19.1044006348000011    0.0000000000000000    0.0000000000000000
    -9.5522003174000005   16.5448962737999992    0.0000000000000000
     0.0000000000000000    0.0000000000000000   18.1270999908000014
   Mo   S 
    36    80
Direct
  0.0003949889619780 -0.0018471550655178  0.4968849890171936
  0.0003843666115568  0.1647838404102646  0.4966860274989828
  0.0003907008654199  0.3314755707684521  0.4966701631102539
  0.0004651489037280  0.4981455048574845  0.4968314561884533
  0.0003867837147510  0.6647850443322423  0.4969318759960090
  0.0003660341953438  0.8314581240076943  0.4969912692383946
  0.1670542090977511 -0.0018370632993890  0.4969957426882737
  0.1670966373035116  0.1648712275203689  0.4967319126030603
  0.1668972314802748  0.3314289865372113  0.4962498388903981
  0.1671323320415091  0.4980918458804632  0.4967814328168323
  0.1671152484453907  0.6647838774054196  0.4970651642862826
  0.1670545322110689  0.8314626621218287  0.4971114790219720
  0.3337134130881040 -0.0018412193814645  0.4969578710490802
  0.3337721279714793  0.1648897887894580  0.4966813747849672
  0.3336853101610622  0.3314969538654233  0.4962122582404303
  0.3339121331719340  0.4981326015944860  0.4963450728664907
  0.3337927639096640  0.6647212429864866  0.4969711263589121
  0.3337393911553637  0.8314376605886523  0.4970527461809215
  0.5003705132132861 -0.0019084629021740  0.4968344205327266
  0.5003919756675161  0.1647723065887756  0.4965444605100769
  0.5004832562128815  0.3313483417417470  0.4959142855179274
  0.5006140291850305  0.4979654046080740  0.4958877971881898
  0.5004123383978364  0.6646335583248064  0.4962670119758221
  0.5003943396433648  0.8313716931675954  0.4967450888820912
  0.6669965318207500 -0.0018989818562834  0.4966291892169679
  0.6670484266649926  0.1647647438849855  0.4965637222043233
  0.6671549685462113  0.3313740080428217  0.4960895388525327
  0.6671967418664796  0.4980565440097691  0.4958869217503276
  0.6670685890779058  0.6648774103085479  0.4961120933874782
  0.6670908743724446  0.8316358697553113  0.4961390960334109
  0.8337213570984980 -0.0018642417023541  0.4966500969047251
  0.8337048595996289  0.1647824308494953  0.4966484095209094
  0.8337765687237811  0.3314850100586051  0.4965739579127776
  0.8337691541126120  0.4981386787179315  0.4965229131225533
  0.8336519898946866  0.6647656893978697  0.4966402005591668
  0.8336742645971937  0.8314595816507442  0.4966857659656196
  0.1115584436664811  0.0538782632167138  0.5827598713989340
  0.1115853384905940  0.2205494914114680  0.5824786469777332
  0.1115293392219715  0.3868708728723948  0.5824972837095657
  0.1115577491948530  0.5535578417349257  0.5827984838422193
  0.1114380199583018  0.7202820049900912  0.5829108193612951
  0.1114406068675387  0.8870486082161859  0.5829332446640859
  0.2782876737415157  0.0539342524558700  0.5827668052749931
  0.2783950774901052  0.2207293081534031  0.5825517658400241
  0.2778850304618063  0.3870219182160116  0.5819153810560138
  0.2783819655996242  0.5534497393584669  0.5827095997796341
  0.2782771473262469  0.7202711024252010  0.5829325229578458
  0.2782374257385586  0.8871113204682005  0.5829197830745794
  0.4449500937029669  0.0538539410947742  0.5826764853629824
  0.4450852179778530  0.2207022108480141  0.5823648597582024
  0.4449832326787277  0.3867752311200247  0.5815288118257064
  0.4453712201538020  0.5532572130542420  0.5816155598915526
  0.4450772879943083  0.7201361849962178  0.5826893874792459
  0.4449951701108195  0.8869894978527764  0.5827731948528018
  0.6115891915488550  0.0537619151666463  0.5825696403102200
  0.6116084657575928  0.2205228661854763  0.5822927195222992
  0.6116066998353389  0.3868988800463754  0.5817408618652785
  0.6118439106156370  0.5536718696092103  0.5814745842735456
  0.6115552718868053  0.7206901927210426  0.5817763186883047
  0.6115774937009114  0.8869135969260197  0.5824480430426221
  0.7781076622739528  0.0536545564205657  0.5825138785073494
  0.7781351423242269  0.2203587324855344  0.5824774418202490
  0.7780018388558967  0.3869649570852873  0.5822866477348202
  0.7778656772864391  0.5534737320634270  0.5823162114694915
  0.7777736015607102  0.7201388631267085  0.5825025530720142
  0.7779258023395969  0.8869513145286372  0.5824116776939002
  0.9447571063702276  0.0537257001267073  0.5826477556166942
  0.9448067004046119  0.2203497053636219  0.5825445881742243
  0.9448102704804421  0.3869648364790532  0.5825982957861014
  0.9446646582429618  0.5535353110435266  0.5826515893488189
  0.9445895369937773  0.7201997312244649  0.5827247992520236
  0.9447018468221645  0.8870001233334615  0.5827428843354006
  0.1114839593775898  0.0536170738403603  0.4110189682722070
  0.1113805924032530  0.2201391776391781  0.4106685585125045
  0.1113793666287072  0.3871342748961407  0.4106648840068239
  0.1116386153244173  0.5538228727690873  0.4110409241741117
  0.1115987492735470  0.7203967817166579  0.4111835357734792
  0.1115141074283942  0.8869759527446620  0.4111959955690083
  0.2780651078935537  0.0535756868685827  0.4110215883616287
  0.2780244510423752  0.2201631876578780  0.4106722617907260
  0.2780619778890037  0.3871024828824985  0.4103660726245039
  0.2781976529220836  0.5538178423980155  0.4108650052681591
  0.2781779008894196  0.7203318567070829  0.4111891379276906
  0.2781099597327986  0.8869818515881079  0.4111852744962489
  0.4446539371085900  0.0534440808324547  0.4109218939449687
  0.4446386351879155  0.2199914951929902  0.4104765829878736
  0.4447411245743098  0.3867992013706589  0.4100597645597168
  0.4448813860830454  0.5536038855778606  0.4101533869548141
  0.4446612434730447  0.7203065282017536  0.4108313211165230
  0.4447177768593160  0.8869412548044048  0.4110281246125551
  0.6113532281183394  0.0535822247938596  0.4107945734982840
  0.6114213646642968  0.2200643827668032  0.4104932803934762
  0.6116536650229928  0.3868522152398738  0.4100375028609863
  0.6117470838686854  0.5537945994026510  0.4099989774013674
  0.6114568156509954  0.7204528797912910  0.4102458950374675
  0.6112977444301566  0.8870944801350735  0.4106130158656694
  0.7781473877286442  0.0536664610492505  0.4107880981592082
  0.7781939986938761  0.2203159041892634  0.4107312069212553
  0.7784711029908038  0.3871281065714437  0.4104943356590658
  0.7785818944436301  0.5538945045010063  0.4104429822378303
  0.7784021324421654  0.7205199484476366  0.4106192820902517
  0.7784138106787363  0.8872044231885129  0.4105872076375512
  0.9448874778384632  0.0536344401531513  0.4108708762108919
  0.9448330039612935  0.2203431424543655  0.4108093112120332
  0.9449867676963275  0.3871430771616339  0.4108078322071706
  0.9450791793906005  0.5538167337769783  0.4109042087429705
  0.9449804042300729  0.7204689133646359  0.4110006173100171
  0.9449791799660060  0.8870611391813205  0.4110035023100891
  0.4057405325473323  0.5881789687385670  0.7613176713570995
  0.5175360362902705  0.6540131221334099  0.8101286791189161
  0.3584046562770179  0.3934792450290059  0.7516563368704248
  0.6207536141244973  0.5543226268876321  0.8018425789655870
  0.3424571358689259  0.4765558159287341  0.8109363024102337
  0.6017939428408812  0.6398854939705511  0.7509382693113530
  0.4457568212524679  0.3770196654568936  0.8021069574821935
  0.5539034252298705  0.4457170330115954  0.7481174492796488
 
  0.00000000E+00  0.00000000E+00  0.00000000E+00
  0.00000000E+00  0.00000000E+00  0.00000000E+00
  0.00000000E+00  0.00000000E+00  0.00000000E+00
  0.00000000E+00  0.00000000E+00  0.00000000E+00
  0.00000000E+00  0.00000000E+00  0.00000000E+00
  0.00000000E+00  0.00000000E+00  0.00000000E+00
  0.00000000E+00  0.00000000E+00  0.00000000E+00
  0.00000000E+00  0.00000000E+00  0.00000000E+00
  0.00000000E+00  0.00000000E+00  0.00000000E+00
  0.00000000E+00  0.00000000E+00  0.00000000E+00
  0.00000000E+00  0.00000000E+00  0.00000000E+00
  0.00000000E+00  0.00000000E+00  0.00000000E+00
  0.00000000E+00  0.00000000E+00  0.00000000E+00
  0.00000000E+00  0.00000000E+00  0.00000000E+00
  0.00000000E+00  0.00000000E+00  0.00000000E+00
  0.00000000E+00  0.00000000E+00  0.00000000E+00
  0.00000000E+00  0.00000000E+00  0.00000000E+00
  0.00000000E+00  0.00000000E+00  0.00000000E+00
  0.00000000E+00  0.00000000E+00  0.00000000E+00
  0.00000000E+00  0.00000000E+00  0.00000000E+00
  0.00000000E+00  0.00000000E+00  0.00000000E+00
  0.00000000E+00  0.00000000E+00  0.00000000E+00
  0.00000000E+00  0.00000000E+00  0.00000000E+00
  0.00000000E+00  0.00000000E+00  0.00000000E+00
  0.00000000E+00  0.00000000E+00  0.00000000E+00
  0.00000000E+00  0.00000000E+00  0.00000000E+00
  0.00000000E+00  0.00000000E+00  0.00000000E+00
  0.00000000E+00  0.00000000E+00  0.00000000E+00
  0.00000000E+00  0.00000000E+00  0.00000000E+00
  0.00000000E+00  0.00000000E+00  0.00000000E+00
  0.00000000E+00  0.00000000E+00  0.00000000E+00
  0.00000000E+00  0.00000000E+00  0.00000000E+00
  0.00000000E+00  0.00000000E+00  0.00000000E+00
  0.00000000E+00  0.00000000E+00  0.00000000E+00
  0.00000000E+00  0.00000000E+00  0.00000000E+00
  0.00000000E+00  0.00000000E+00  0.00000000E+00
  0.00000000E+00  0.00000000E+00  0.00000000E+00
  0.00000000E+00  0.00000000E+00  0.00000000E+00
  0.00000000E+00  0.00000000E+00  0.00000000E+00
  0.00000000E+00  0.00000000E+00  0.00000000E+00
  0.00000000E+00  0.00000000E+00  0.00000000E+00
  0.00000000E+00  0.00000000E+00  0.00000000E+00
  0.00000000E+00  0.00000000E+00  0.00000000E+00
  0.00000000E+00  0.00000000E+00  0.00000000E+00
  0.00000000E+00  0.00000000E+00  0.00000000E+00
  0.00000000E+00  0.00000000E+00  0.00000000E+00
  0.00000000E+00  0.00000000E+00  0.00000000E+00
  0.00000000E+00  0.00000000E+00  0.00000000E+00
  0.00000000E+00  0.00000000E+00  0.00000000E+00
  0.00000000E+00  0.00000000E+00  0.00000000E+00
  0.00000000E+00  0.00000000E+00  0.00000000E+00
  0.00000000E+00  0.00000000E+00  0.00000000E+00
  0.00000000E+00  0.00000000E+00  0.00000000E+00
  0.00000000E+00  0.00000000E+00  0.00000000E+00
  0.00000000E+00  0.00000000E+00  0.00000000E+00
  0.00000000E+00  0.00000000E+00  0.00000000E+00
  0.00000000E+00  0.00000000E+00  0.00000000E+00
  0.00000000E+00  0.00000000E+00  0.00000000E+00
  0.00000000E+00  0.00000000E+00  0.00000000E+00
  0.00000000E+00  0.00000000E+00  0.00000000E+00
  0.00000000E+00  0.00000000E+00  0.00000000E+00
  0.00000000E+00  0.00000000E+00  0.00000000E+00
  0.00000000E+00  0.00000000E+00  0.00000000E+00
  0.00000000E+00  0.00000000E+00  0.00000000E+00
  0.00000000E+00  0.00000000E+00  0.00000000E+00
  0.00000000E+00  0.00000000E+00  0.00000000E+00
  0.00000000E+00  0.00000000E+00  0.00000000E+00
  0.00000000E+00  0.00000000E+00  0.00000000E+00
  0.00000000E+00  0.00000000E+00  0.00000000E+00
  0.00000000E+00  0.00000000E+00  0.00000000E+00
  0.00000000E+00  0.00000000E+00  0.00000000E+00
  0.00000000E+00  0.00000000E+00  0.00000000E+00
  0.00000000E+00  0.00000000E+00  0.00000000E+00
  0.00000000E+00  0.00000000E+00  0.00000000E+00
  0.00000000E+00  0.00000000E+00  0.00000000E+00
  0.00000000E+00  0.00000000E+00  0.00000000E+00
  0.00000000E+00  0.00000000E+00  0.00000000E+00
  0.00000000E+00  0.00000000E+00  0.00000000E+00
  0.00000000E+00  0.00000000E+00  0.00000000E+00
  0.00000000E+00  0.00000000E+00  0.00000000E+00
  0.00000000E+00  0.00000000E+00  0.00000000E+00
  0.00000000E+00  0.00000000E+00  0.00000000E+00
  0.00000000E+00  0.00000000E+00  0.00000000E+00
  0.00000000E+00  0.00000000E+00  0.00000000E+00
  0.00000000E+00  0.00000000E+00  0.00000000E+00
  0.00000000E+00  0.00000000E+00  0.00000000E+00
  0.00000000E+00  0.00000000E+00  0.00000000E+00
  0.00000000E+00  0.00000000E+00  0.00000000E+00
  0.00000000E+00  0.00000000E+00  0.00000000E+00
  0.00000000E+00  0.00000000E+00  0.00000000E+00
  0.00000000E+00  0.00000000E+00  0.00000000E+00
  0.00000000E+00  0.00000000E+00  0.00000000E+00
  0.00000000E+00  0.00000000E+00  0.00000000E+00
  0.00000000E+00  0.00000000E+00  0.00000000E+00
  0.00000000E+00  0.00000000E+00  0.00000000E+00
  0.00000000E+00  0.00000000E+00  0.00000000E+00
  0.00000000E+00  0.00000000E+00  0.00000000E+00
  0.00000000E+00  0.00000000E+00  0.00000000E+00
  0.00000000E+00  0.00000000E+00  0.00000000E+00
  0.00000000E+00  0.00000000E+00  0.00000000E+00
  0.00000000E+00  0.00000000E+00  0.00000000E+00
  0.00000000E+00  0.00000000E+00  0.00000000E+00
  0.00000000E+00  0.00000000E+00  0.00000000E+00
  0.00000000E+00  0.00000000E+00  0.00000000E+00
  0.00000000E+00  0.00000000E+00  0.00000000E+00
  0.00000000E+00  0.00000000E+00  0.00000000E+00
  0.00000000E+00  0.00000000E+00  0.00000000E+00
  0.00000000E+00  0.00000000E+00  0.00000000E+00
  0.00000000E+00  0.00000000E+00  0.00000000E+00
  0.00000000E+00  0.00000000E+00  0.00000000E+00
  0.00000000E+00  0.00000000E+00  0.00000000E+00
  0.00000000E+00  0.00000000E+00  0.00000000E+00
  0.00000000E+00  0.00000000E+00  0.00000000E+00
  0.00000000E+00  0.00000000E+00  0.00000000E+00
  0.00000000E+00  0.00000000E+00  0.00000000E+00
  0.00000000E+00  0.00000000E+00  0.00000000E+00
