Li2S6                                   
   1.00000000000000     
    30.0000000000000000    0.0000000000000000    0.0000000000000000
     0.0000000000000000   30.0000000000000000    0.0000000000000000
     0.0000000000000000    0.0000000000000000   20.0000000000000000
   Li   S 
     2     6
Direct
  0.5108365950739018  0.5244813608392103  0.4400881174969790
  0.4883928226403495  0.5181216782546225  0.5689329527325619
  0.4375864482043333  0.5330003392551446  0.4838708209451152
  0.5712452108938405  0.4722347776742646  0.4775943600027852
  0.4692188420665566  0.4250388831550021  0.4701967268901474
  0.5615048283183168  0.5320007262093484  0.5274797200924516
  0.4286679550191736  0.4689966024898905  0.5205262459095783
  0.5314752977835352  0.4233856321225343  0.5183110559303937
 
  0.00000000E+00  0.00000000E+00  0.00000000E+00
  0.00000000E+00  0.00000000E+00  0.00000000E+00
  0.00000000E+00  0.00000000E+00  0.00000000E+00
  0.00000000E+00  0.00000000E+00  0.00000000E+00
  0.00000000E+00  0.00000000E+00  0.00000000E+00
  0.00000000E+00  0.00000000E+00  0.00000000E+00
  0.00000000E+00  0.00000000E+00  0.00000000E+00
  0.00000000E+00  0.00000000E+00  0.00000000E+00
