661_S8                                  
   1.00000000000000     
    19.1044006348000011    0.0000000000000000    0.0000000000000000
    -9.5522003174000005   16.5448962737999992    0.0000000000000000
     0.0000000000000000    0.0000000000000000   18.1270999908000014
   Mo   S 
    36    76
Direct
  0.0011346608585224  0.0002376397441381  0.4991885116641563
  0.0011490577136499  0.1669275735507345  0.4991205221600494
  0.0011793336380012  0.3336133182520864  0.4991641246677054
  0.0012005075680490  0.5002665836399328  0.4992842799340777
  0.0011544674990210  0.6669053516875045  0.4992906871504523
  0.0011434878622325  0.8335651673507910  0.4992513874995322
  0.1678060761740993  0.0002444740146105  0.4993600178874031
  0.1678424184563654  0.1669792586036320  0.4992135721064510
  0.1678149825542385  0.3336068340861678  0.4989209701841408
  0.1678615295974339  0.5002278998991591  0.4991794223358277
  0.1678854655506118  0.6669159398035194  0.4993938681676291
  0.1678286761619098  0.8335627209070097  0.4993983532461622
  0.3344724527986048  0.0002512393319767  0.4993855899450273
  0.3344755147989379  0.1669753997196279  0.4992890116393952
  0.3345353775675269  0.3336648058547819  0.4990159760418305
  0.3345113477091913  0.5002318226606727  0.4988390621684713
  0.3345872084839556  0.6668860951579496  0.4991995526349561
  0.3345295456772970  0.8335677076639937  0.4993601964528762
  0.5011488998658750  0.0002534554215006  0.4992736523323110
  0.5011204687882496  0.1669316248496488  0.4992591658989738
  0.5011714863464573  0.3336619737348463  0.4990086917435352
  0.5012535914616568  0.5002286877951232  0.4985495139105556
  0.5013021114265169  0.6670508480784351  0.4984329191514379
  0.5012035070300409  0.8336092392302817  0.4990135256615932
  0.6678251716603359  0.0002776517908188  0.4990941644354034
  0.6678193359568331  0.1669479492251706  0.4992071638999776
  0.6678032908933835  0.3335769645198263  0.4991073524733614
  0.6678149056490635  0.5001644385281285  0.4987523885196443
  0.6677557008447416  0.6668480657655405  0.4987490652905696
  0.6678829552475113  0.8336646332384339  0.4986885959001721
  0.8344906572608476  0.0002534123572207  0.4990345188619555
  0.8344921017800075  0.1669517887083305  0.4991494738896254
  0.8344921318963219  0.3335944789579681  0.4991835611913518
  0.8345038907163597  0.5002435846594132  0.4991401290327817
  0.8344368794350626  0.6668911254576051  0.4990692740578299
  0.8344243669518745  0.8335338528801037  0.4989843596747224
  0.1122278006700062  0.0558818725994997  0.5851225853777671
  0.1122990427285005  0.2226116551164650  0.5849776914314776
  0.1123330404191442  0.3890853517054599  0.5850190245625835
  0.1123477136408931  0.5557523968171110  0.5851906418946222
  0.1122303511266169  0.7224203184951118  0.5852373694541557
  0.1122019584062446  0.8891006138996475  0.5852174660076256
  0.2789366833716748  0.0558967308302014  0.5852253893246245
  0.2789998952819211  0.2227001965076983  0.5851143313762522
  0.2789525591262004  0.3891713639106126  0.5847207572314093
  0.2790903956964605  0.5556698408191463  0.5850175671451651
  0.2790896110154535  0.7224199300421700  0.5852283526082595
  0.2789704026962976  0.8891121896815039  0.5852507616264884
  0.4456280728920580  0.0558315893712056  0.5851826724464209
  0.4456548239228916  0.2226841747535662  0.5850687278712335
  0.4457110914669365  0.3894570802852932  0.5848907258404699
  0.4459357296754272  0.5559805227110843  0.5838517021446915
  0.4459311093663821  0.7223885376072128  0.5848258781650255
  0.4457326895538727  0.8890778520898880  0.5851025411047801
  0.6123350883055135  0.0558332529496805  0.5850709935178392
  0.6122909393237775  0.2225513226621905  0.5850604619119275
  0.6122765302202906  0.3892471711233673  0.5849004823915211
  0.6120766068795930  0.5556374043197141  0.5844665335938747
  0.6122672200338666  0.7225916566898610  0.5844239855258071
  0.6123586564670411  0.8890598164981394  0.5848497436630857
  0.7789411344964700  0.0557902607761289  0.5849630662619462
  0.7789575773919651  0.2224974872082050  0.5850633596955029
  0.7788945269167032  0.3891306314222118  0.5850128285932500
  0.7787506236585161  0.5557498409536997  0.5848932122099352
  0.7786679083844859  0.7223578226250272  0.5848693419466880
  0.7787949360956290  0.8890418295742651  0.5847886846075524
  0.9455333794200719  0.0557842987068356  0.5849918360368406
  0.9456047607781924  0.2224854389593603  0.5850082996566555
  0.9455936192605998  0.3890961007569754  0.5850821995813074
  0.9455264715458938  0.5557455116514410  0.5851136396483919
  0.9454361837493314  0.7224193643725157  0.5850732891927326
  0.9454236882714382  0.8890567100116282  0.5850039205096442
  0.1123114774828171  0.0558007984591623  0.4134077439313770
  0.1122361742984235  0.2223963706200289  0.4132025770874632
  0.1122482049564915  0.3892279087802807  0.4131929205344741
  0.1123251422145491  0.5558965520542827  0.4134409299960038
  0.1123508101139637  0.7224855886009142  0.4135028839796009
  0.1123359252382524  0.8891351597523603  0.4134673129822684
  0.2789115165928015  0.0557886954943728  0.4135052740669258
  0.2788976795780152  0.2224076549334905  0.4132959265954934
  0.2788946738837588  0.3890503465409805  0.4129668791389312
  0.2788983797341571  0.5558927053570762  0.4131953513099886
  0.2789407735342683  0.7224954684701664  0.4134765052996142
  0.2789279054460718  0.8891225966853195  0.4135299094599551
  0.4455068826508197  0.0557547543099692  0.4134405470927798
  0.4455002238648704  0.2223946033534010  0.4133268424978030
  0.4454975497956414  0.3889374019247279  0.4129226883719663
  0.4455415642321867  0.5557486617610936  0.4126194878389097
  0.4454570221338046  0.7225951968468074  0.4129952798747510
  0.4455091897806529  0.8891791447619001  0.4133440783464866
  0.6122028134009129  0.0558618233210695  0.4133310223340946
  0.6121821023565414  0.2224112229711787  0.4133199472054909
  0.6122222157285366  0.3889701263580748  0.4130437608991398
  0.6123937175778590  0.5557952541711588  0.4127393452705998
  0.6124728738017933  0.7225897653170881  0.4126777673645058
  0.6122442881569484  0.8892994610526523  0.4130444521181736
  0.7789589084516846  0.0558978987460100  0.4132366615260893
  0.7789121568415666  0.2225064263184960  0.4133003568621441
  0.7789644512940362  0.3891263058811757  0.4132607367179473
  0.7791025585807230  0.5558225076676758  0.4131183131484684
  0.7790097910530002  0.7224575067452230  0.4130524148274325
  0.7791011688677807  0.8892598977506934  0.4129835262818112
  0.9456521046558992  0.0558092745864099  0.4132364984134811
  0.9455998609329029  0.2225340041492517  0.4132738406500486
  0.9456288072549438  0.3891992126808488  0.4133360877118667
  0.9457099835057099  0.5558376366363619  0.4133598448216508
  0.9456957815881805  0.7225101983252329  0.4133351648699148
  0.9456799738040275  0.8891313124918367  0.4132725422201637
  0.3830148304360983  0.5703718773865157  0.7599589084759779
  0.5134354568937658  0.6491205752785356  0.7589913146197388
  0.3684269422286642  0.4642986630901167  0.7574141340428119
  0.5545017309196482  0.5766176947373439  0.7556875352440444
 
  0.00000000E+00  0.00000000E+00  0.00000000E+00
  0.00000000E+00  0.00000000E+00  0.00000000E+00
  0.00000000E+00  0.00000000E+00  0.00000000E+00
  0.00000000E+00  0.00000000E+00  0.00000000E+00
  0.00000000E+00  0.00000000E+00  0.00000000E+00
  0.00000000E+00  0.00000000E+00  0.00000000E+00
  0.00000000E+00  0.00000000E+00  0.00000000E+00
  0.00000000E+00  0.00000000E+00  0.00000000E+00
  0.00000000E+00  0.00000000E+00  0.00000000E+00
  0.00000000E+00  0.00000000E+00  0.00000000E+00
  0.00000000E+00  0.00000000E+00  0.00000000E+00
  0.00000000E+00  0.00000000E+00  0.00000000E+00
  0.00000000E+00  0.00000000E+00  0.00000000E+00
  0.00000000E+00  0.00000000E+00  0.00000000E+00
  0.00000000E+00  0.00000000E+00  0.00000000E+00
  0.00000000E+00  0.00000000E+00  0.00000000E+00
  0.00000000E+00  0.00000000E+00  0.00000000E+00
  0.00000000E+00  0.00000000E+00  0.00000000E+00
  0.00000000E+00  0.00000000E+00  0.00000000E+00
  0.00000000E+00  0.00000000E+00  0.00000000E+00
  0.00000000E+00  0.00000000E+00  0.00000000E+00
  0.00000000E+00  0.00000000E+00  0.00000000E+00
  0.00000000E+00  0.00000000E+00  0.00000000E+00
  0.00000000E+00  0.00000000E+00  0.00000000E+00
  0.00000000E+00  0.00000000E+00  0.00000000E+00
  0.00000000E+00  0.00000000E+00  0.00000000E+00
  0.00000000E+00  0.00000000E+00  0.00000000E+00
  0.00000000E+00  0.00000000E+00  0.00000000E+00
  0.00000000E+00  0.00000000E+00  0.00000000E+00
  0.00000000E+00  0.00000000E+00  0.00000000E+00
  0.00000000E+00  0.00000000E+00  0.00000000E+00
  0.00000000E+00  0.00000000E+00  0.00000000E+00
  0.00000000E+00  0.00000000E+00  0.00000000E+00
  0.00000000E+00  0.00000000E+00  0.00000000E+00
  0.00000000E+00  0.00000000E+00  0.00000000E+00
  0.00000000E+00  0.00000000E+00  0.00000000E+00
  0.00000000E+00  0.00000000E+00  0.00000000E+00
  0.00000000E+00  0.00000000E+00  0.00000000E+00
  0.00000000E+00  0.00000000E+00  0.00000000E+00
  0.00000000E+00  0.00000000E+00  0.00000000E+00
  0.00000000E+00  0.00000000E+00  0.00000000E+00
  0.00000000E+00  0.00000000E+00  0.00000000E+00
  0.00000000E+00  0.00000000E+00  0.00000000E+00
  0.00000000E+00  0.00000000E+00  0.00000000E+00
  0.00000000E+00  0.00000000E+00  0.00000000E+00
  0.00000000E+00  0.00000000E+00  0.00000000E+00
  0.00000000E+00  0.00000000E+00  0.00000000E+00
  0.00000000E+00  0.00000000E+00  0.00000000E+00
  0.00000000E+00  0.00000000E+00  0.00000000E+00
  0.00000000E+00  0.00000000E+00  0.00000000E+00
  0.00000000E+00  0.00000000E+00  0.00000000E+00
  0.00000000E+00  0.00000000E+00  0.00000000E+00
  0.00000000E+00  0.00000000E+00  0.00000000E+00
  0.00000000E+00  0.00000000E+00  0.00000000E+00
  0.00000000E+00  0.00000000E+00  0.00000000E+00
  0.00000000E+00  0.00000000E+00  0.00000000E+00
  0.00000000E+00  0.00000000E+00  0.00000000E+00
  0.00000000E+00  0.00000000E+00  0.00000000E+00
  0.00000000E+00  0.00000000E+00  0.00000000E+00
  0.00000000E+00  0.00000000E+00  0.00000000E+00
  0.00000000E+00  0.00000000E+00  0.00000000E+00
  0.00000000E+00  0.00000000E+00  0.00000000E+00
  0.00000000E+00  0.00000000E+00  0.00000000E+00
  0.00000000E+00  0.00000000E+00  0.00000000E+00
  0.00000000E+00  0.00000000E+00  0.00000000E+00
  0.00000000E+00  0.00000000E+00  0.00000000E+00
  0.00000000E+00  0.00000000E+00  0.00000000E+00
  0.00000000E+00  0.00000000E+00  0.00000000E+00
  0.00000000E+00  0.00000000E+00  0.00000000E+00
  0.00000000E+00  0.00000000E+00  0.00000000E+00
  0.00000000E+00  0.00000000E+00  0.00000000E+00
  0.00000000E+00  0.00000000E+00  0.00000000E+00
  0.00000000E+00  0.00000000E+00  0.00000000E+00
  0.00000000E+00  0.00000000E+00  0.00000000E+00
  0.00000000E+00  0.00000000E+00  0.00000000E+00
  0.00000000E+00  0.00000000E+00  0.00000000E+00
  0.00000000E+00  0.00000000E+00  0.00000000E+00
  0.00000000E+00  0.00000000E+00  0.00000000E+00
  0.00000000E+00  0.00000000E+00  0.00000000E+00
  0.00000000E+00  0.00000000E+00  0.00000000E+00
  0.00000000E+00  0.00000000E+00  0.00000000E+00
  0.00000000E+00  0.00000000E+00  0.00000000E+00
  0.00000000E+00  0.00000000E+00  0.00000000E+00
  0.00000000E+00  0.00000000E+00  0.00000000E+00
  0.00000000E+00  0.00000000E+00  0.00000000E+00
  0.00000000E+00  0.00000000E+00  0.00000000E+00
  0.00000000E+00  0.00000000E+00  0.00000000E+00
  0.00000000E+00  0.00000000E+00  0.00000000E+00
  0.00000000E+00  0.00000000E+00  0.00000000E+00
  0.00000000E+00  0.00000000E+00  0.00000000E+00
  0.00000000E+00  0.00000000E+00  0.00000000E+00
  0.00000000E+00  0.00000000E+00  0.00000000E+00
  0.00000000E+00  0.00000000E+00  0.00000000E+00
  0.00000000E+00  0.00000000E+00  0.00000000E+00
  0.00000000E+00  0.00000000E+00  0.00000000E+00
  0.00000000E+00  0.00000000E+00  0.00000000E+00
  0.00000000E+00  0.00000000E+00  0.00000000E+00
  0.00000000E+00  0.00000000E+00  0.00000000E+00
  0.00000000E+00  0.00000000E+00  0.00000000E+00
  0.00000000E+00  0.00000000E+00  0.00000000E+00
  0.00000000E+00  0.00000000E+00  0.00000000E+00
  0.00000000E+00  0.00000000E+00  0.00000000E+00
  0.00000000E+00  0.00000000E+00  0.00000000E+00
  0.00000000E+00  0.00000000E+00  0.00000000E+00
  0.00000000E+00  0.00000000E+00  0.00000000E+00
  0.00000000E+00  0.00000000E+00  0.00000000E+00
  0.00000000E+00  0.00000000E+00  0.00000000E+00
  0.00000000E+00  0.00000000E+00  0.00000000E+00
  0.00000000E+00  0.00000000E+00  0.00000000E+00
  0.00000000E+00  0.00000000E+00  0.00000000E+00
  0.00000000E+00  0.00000000E+00  0.00000000E+00
  0.00000000E+00  0.00000000E+00  0.00000000E+00
