Li2S8                                   
   1.00000000000000     
    30.0000000000000000    0.0000000000000000    0.0000000000000000
     0.0000000000000000   30.0000000000000000    0.0000000000000000
     0.0000000000000000    0.0000000000000000   20.0000000000000000
   Li   S 
     2     8
Direct
  0.4821795123264742  0.5669632916367142  0.4411360265316856
  0.5178627300913796  0.5669642532601827  0.5588114198318768
  0.4142744254775786  0.5308051785049320  0.4758818486820522
  0.5796144583781183  0.4660235132592786  0.4883511944726414
  0.4725082150581111  0.4329668617508750  0.4679346722741705
  0.5592696792058014  0.5778212559391348  0.4601110697500725
  0.5857321443209006  0.5306839693922809  0.5241461170605041
  0.4203318641232872  0.4661570319481032  0.5117368083363837
  0.5273814501922500  0.4329117068114932  0.5321341743369132
  0.4407975208260929  0.5779819374970127  0.5397966687237055
 
  0.00000000E+00  0.00000000E+00  0.00000000E+00
  0.00000000E+00  0.00000000E+00  0.00000000E+00
  0.00000000E+00  0.00000000E+00  0.00000000E+00
  0.00000000E+00  0.00000000E+00  0.00000000E+00
  0.00000000E+00  0.00000000E+00  0.00000000E+00
  0.00000000E+00  0.00000000E+00  0.00000000E+00
  0.00000000E+00  0.00000000E+00  0.00000000E+00
  0.00000000E+00  0.00000000E+00  0.00000000E+00
  0.00000000E+00  0.00000000E+00  0.00000000E+00
  0.00000000E+00  0.00000000E+00  0.00000000E+00
