661_Li2S5                               
   1.00000000000000     
    19.1044006348000011    0.0000000000000000    0.0000000000000000
    -9.5522003174000005   16.5448962737999992    0.0000000000000000
     0.0000000000000000    0.0000000000000000   18.1270999908000014
   Mo   S    Li
    36    77     2
Direct
 -0.0000008899136342  0.0000012572466472  0.4999980640845278
  0.0000004076361049  0.1666711189106805  0.4999975200813596
  0.0000005245785204  0.3333326897266019  0.4999999895322639
 -0.0000016352898433  0.4999988396201013  0.5000002593127630
 -0.0000031691013944  0.6666668897607553  0.4999987250207194
 -0.0000023533896819  0.8333302945507362  0.4999992538446192
  0.1666690604127661  0.0000013805404760  0.4999981501502621
  0.1666696606051940  0.1666724820799298  0.4999964010331326
  0.1666699188812172  0.3333353453563723  0.4999986288729219
  0.1666691529959157  0.4999969001442837  0.5000048889088856
  0.1666695223459904  0.6666667999448997  0.4999989291504588
  0.1666687817513696  0.8333298969753696  0.4999982252448438
  0.3333315004164236  0.0000014300814520  0.4999979595479231
  0.3333352897302892  0.1666766409006125  0.5000001429413328
  0.3333547501690167  0.3333500247194859  0.5000132005602624
  0.3332843864767570  0.4999661144395304  0.5000002576757822
  0.3333329786967907  0.6666674241942909  0.4999992753021149
  0.3333319965646004  0.8333295795367052  0.4999987206109401
  0.4999999019519074  0.0000009072332476  0.4999983862130998
  0.5000012724282489  0.1666716196434683  0.4999960054695393
  0.4999959419884756  0.3333435292149173  0.4999775661609205
  0.4999787819755449  0.4999421555795350  0.5000530135629963
  0.5000419406913117  0.6667202862345624  0.4999998346452645
  0.5000031973551513  0.8333272189164049  0.5000055259771850
  0.6666687495595903  0.0000013283113882  0.4999968926782252
  0.6666697288289384  0.1666710721694027  0.4999978543725689
  0.6666755030247072  0.3333343342547656  0.5000014574414395
  0.6666769586765939  0.4999674571170047  0.4999712316376004
  0.6666657861695149  0.6667053840933752  0.5000456285334125
  0.6666581427191132  0.8333179107519628  0.4999850399350942
  0.8333317821166173  0.0000019441871281  0.4999952416824635
  0.8333313020794991  0.1666706777828253  0.4999975343332745
  0.8333311300034343  0.3333323153849523  0.5000003173579685
  0.8333287177773436  0.4999953153645985  0.5000034168085198
  0.8333248532019597  0.6666676668561848  0.4999956491258969
  0.8333212143061305  0.8333272419882138  0.5000035813448256
  0.1111093296816228  0.0555596476289913  0.5861878954238025
  0.1111151251659795  0.2222302580612843  0.5861864568982244
  0.1111141083455050  0.3888821224773381  0.5861865061926270
  0.1111066768318396  0.5555587197188734  0.5861846759427792
  0.1111154648383653  0.7222313166635770  0.5861853833692012
  0.1111159689480456  0.8888855558204436  0.5861853904743867
  0.2777807544444474  0.0555624315788924  0.5861918284800015
  0.2777838798092175  0.2222207170857804  0.5861993568000647
  0.2777667354123781  0.3888811277369140  0.5861990440424806
  0.2777790412398987  0.5555622818901653  0.5861914609436989
  0.2777811883485604  0.7222211082231889  0.5861917093483529
  0.2777697630730827  0.8888857688701212  0.5861856685736758
  0.4444415229452466  0.0555600014049941  0.5861881731236515
  0.4444366919666661  0.2222232247913284  0.5861997412272011
  0.4444485208784126  0.3888710842717075  0.5861319703796539
  0.4444401499779541  0.5555581065072167  0.5862143412843714
  0.4444443118718450  0.7222228096793925  0.5862006698297484
  0.4444426557789112  0.8888937873754816  0.5861862466487238
  0.6111081630601835  0.0555577118483889  0.5861879886031542
  0.6111143057468773  0.2222296505845589  0.5861855904548926
  0.6111076681097417  0.3888827205284661  0.5862047037450716
  0.6111142528682657  0.5555522988248525  0.5862104064639736
  0.6111122503045786  0.7222561180421099  0.5861251984522177
  0.6111164072545427  0.8888812361034355  0.5861955244268390
  0.7777800911063393  0.0555593885152959  0.5861919415502875
  0.7777796706748001  0.2222187000132175  0.5861914587436395
  0.7777686357688437  0.3888826021612839  0.5861854363305659
  0.7777818676929655  0.5555642365819843  0.5861968226668077
  0.7777742865109414  0.7222193483921543  0.5862069075829889
  0.7777682814614625  0.8888850659962055  0.5861966421147090
  0.9444401072774566  0.0555576397206212  0.5861886447334036
  0.9444384788200597  0.2222186446946170  0.5861909893351368
  0.9444412292091782  0.3888912035416536  0.5861863736945705
  0.9444427043147278  0.5555586057451235  0.5861850332795961
  0.9444387235909325  0.7222215834646913  0.5861920494689563
  0.9444416541720093  0.8888926141094532  0.5861868034871822
  0.1111081693855884  0.0555585542593613  0.4138049312053901
  0.1111152567818915  0.2222305755624325  0.4138067537600760
  0.1111158156655893  0.3888844608896709  0.4138056433631421
  0.1111079939173430  0.5555581117969239  0.4138053002030023
  0.1111155648272063  0.7222313153284785  0.4138061486874380
  0.1111157047310460  0.8888851238458934  0.4138065398091322
  0.2777800724583188  0.0555609158280544  0.4138007772157448
  0.2777803336815646  0.2222205832448779  0.4137991681110571
  0.2777725128296815  0.3888880175124892  0.4138063981478284
  0.2777811932709106  0.5555592664899844  0.4138024947492481
  0.2777803565137974  0.7222206063836821  0.4138005718096660
  0.2777694844525740  0.8888853009901028  0.4138061984103960
  0.4444414382616266  0.0555586099495265  0.4138048527931202
  0.4444393073561546  0.2222199017195073  0.4138008407436450
  0.4444438404717725  0.3888964157342391  0.4137979351182101
  0.4444432095183978  0.5555562477149434  0.4138168787685507
  0.4444405654257811  0.7222198414452113  0.4137998511751926
  0.4444422404038887  0.8888924650667570  0.4138050417933098
  0.6111082308108429  0.0555586223250296  0.4138047750243724
  0.6111155938261702  0.2222311768021025  0.4138066320084658
  0.6111165566471517  0.3888880031276480  0.4138089068686168
  0.6111062262045313  0.5555572726965392  0.4138133023316584
  0.6111151179809582  0.7222283001834889  0.4138017502351853
  0.6111161901275493  0.8888843204780136  0.4138053395224514
  0.7777801543688480  0.0555609463083133  0.4138012711413525
  0.7777800770746324  0.2222195838798371  0.4138003483627436
  0.7777686650674034  0.3888849060739884  0.4138056403195718
  0.7777785296927395  0.5555604518707520  0.4138045706763464
  0.7777800282700599  0.7222208099819784  0.4137984618344474
  0.7777701831578082  0.8888837389869632  0.4138059868573037
  0.9444412309376504  0.0555584726892990  0.4138047976526022
  0.9444386751355440  0.2222194228340423  0.4138007771562306
  0.9444411604378536  0.3888914264756109  0.4138045043973825
  0.9444408173442225  0.5555580881269361  0.4138053331546812
  0.9444394620207955  0.7222207830609366  0.4138009663429947
  0.9444411878020240  0.8888919516949003  0.4138050380199454
  0.4728030524679632  0.4349516478610633  0.7575860807534421
  0.6297529310056685  0.6287001945200152  0.8388966500856139
  0.5349427336284522  0.5575582424705740  0.9112156854313894
  0.5915877125637098  0.6702129283904890  0.7512012516543677
  0.4386858780925748  0.4841111446799444  0.8424040847048868
  0.6005120384047533  0.5501941460650407  0.7334154515912908
  0.4638990510545092  0.5532041921877658  0.7313282647363459
 
  0.00000000E+00  0.00000000E+00  0.00000000E+00
  0.00000000E+00  0.00000000E+00  0.00000000E+00
  0.00000000E+00  0.00000000E+00  0.00000000E+00
  0.00000000E+00  0.00000000E+00  0.00000000E+00
  0.00000000E+00  0.00000000E+00  0.00000000E+00
  0.00000000E+00  0.00000000E+00  0.00000000E+00
  0.00000000E+00  0.00000000E+00  0.00000000E+00
  0.00000000E+00  0.00000000E+00  0.00000000E+00
  0.00000000E+00  0.00000000E+00  0.00000000E+00
  0.00000000E+00  0.00000000E+00  0.00000000E+00
  0.00000000E+00  0.00000000E+00  0.00000000E+00
  0.00000000E+00  0.00000000E+00  0.00000000E+00
  0.00000000E+00  0.00000000E+00  0.00000000E+00
  0.00000000E+00  0.00000000E+00  0.00000000E+00
  0.00000000E+00  0.00000000E+00  0.00000000E+00
  0.00000000E+00  0.00000000E+00  0.00000000E+00
  0.00000000E+00  0.00000000E+00  0.00000000E+00
  0.00000000E+00  0.00000000E+00  0.00000000E+00
  0.00000000E+00  0.00000000E+00  0.00000000E+00
  0.00000000E+00  0.00000000E+00  0.00000000E+00
  0.00000000E+00  0.00000000E+00  0.00000000E+00
  0.00000000E+00  0.00000000E+00  0.00000000E+00
  0.00000000E+00  0.00000000E+00  0.00000000E+00
  0.00000000E+00  0.00000000E+00  0.00000000E+00
  0.00000000E+00  0.00000000E+00  0.00000000E+00
  0.00000000E+00  0.00000000E+00  0.00000000E+00
  0.00000000E+00  0.00000000E+00  0.00000000E+00
  0.00000000E+00  0.00000000E+00  0.00000000E+00
  0.00000000E+00  0.00000000E+00  0.00000000E+00
  0.00000000E+00  0.00000000E+00  0.00000000E+00
  0.00000000E+00  0.00000000E+00  0.00000000E+00
  0.00000000E+00  0.00000000E+00  0.00000000E+00
  0.00000000E+00  0.00000000E+00  0.00000000E+00
  0.00000000E+00  0.00000000E+00  0.00000000E+00
  0.00000000E+00  0.00000000E+00  0.00000000E+00
  0.00000000E+00  0.00000000E+00  0.00000000E+00
  0.00000000E+00  0.00000000E+00  0.00000000E+00
  0.00000000E+00  0.00000000E+00  0.00000000E+00
  0.00000000E+00  0.00000000E+00  0.00000000E+00
  0.00000000E+00  0.00000000E+00  0.00000000E+00
  0.00000000E+00  0.00000000E+00  0.00000000E+00
  0.00000000E+00  0.00000000E+00  0.00000000E+00
  0.00000000E+00  0.00000000E+00  0.00000000E+00
  0.00000000E+00  0.00000000E+00  0.00000000E+00
  0.00000000E+00  0.00000000E+00  0.00000000E+00
  0.00000000E+00  0.00000000E+00  0.00000000E+00
  0.00000000E+00  0.00000000E+00  0.00000000E+00
  0.00000000E+00  0.00000000E+00  0.00000000E+00
  0.00000000E+00  0.00000000E+00  0.00000000E+00
  0.00000000E+00  0.00000000E+00  0.00000000E+00
  0.00000000E+00  0.00000000E+00  0.00000000E+00
  0.00000000E+00  0.00000000E+00  0.00000000E+00
  0.00000000E+00  0.00000000E+00  0.00000000E+00
  0.00000000E+00  0.00000000E+00  0.00000000E+00
  0.00000000E+00  0.00000000E+00  0.00000000E+00
  0.00000000E+00  0.00000000E+00  0.00000000E+00
  0.00000000E+00  0.00000000E+00  0.00000000E+00
  0.00000000E+00  0.00000000E+00  0.00000000E+00
  0.00000000E+00  0.00000000E+00  0.00000000E+00
  0.00000000E+00  0.00000000E+00  0.00000000E+00
  0.00000000E+00  0.00000000E+00  0.00000000E+00
  0.00000000E+00  0.00000000E+00  0.00000000E+00
  0.00000000E+00  0.00000000E+00  0.00000000E+00
  0.00000000E+00  0.00000000E+00  0.00000000E+00
  0.00000000E+00  0.00000000E+00  0.00000000E+00
  0.00000000E+00  0.00000000E+00  0.00000000E+00
  0.00000000E+00  0.00000000E+00  0.00000000E+00
  0.00000000E+00  0.00000000E+00  0.00000000E+00
  0.00000000E+00  0.00000000E+00  0.00000000E+00
  0.00000000E+00  0.00000000E+00  0.00000000E+00
  0.00000000E+00  0.00000000E+00  0.00000000E+00
  0.00000000E+00  0.00000000E+00  0.00000000E+00
  0.00000000E+00  0.00000000E+00  0.00000000E+00
  0.00000000E+00  0.00000000E+00  0.00000000E+00
  0.00000000E+00  0.00000000E+00  0.00000000E+00
  0.00000000E+00  0.00000000E+00  0.00000000E+00
  0.00000000E+00  0.00000000E+00  0.00000000E+00
  0.00000000E+00  0.00000000E+00  0.00000000E+00
  0.00000000E+00  0.00000000E+00  0.00000000E+00
  0.00000000E+00  0.00000000E+00  0.00000000E+00
  0.00000000E+00  0.00000000E+00  0.00000000E+00
  0.00000000E+00  0.00000000E+00  0.00000000E+00
  0.00000000E+00  0.00000000E+00  0.00000000E+00
  0.00000000E+00  0.00000000E+00  0.00000000E+00
  0.00000000E+00  0.00000000E+00  0.00000000E+00
  0.00000000E+00  0.00000000E+00  0.00000000E+00
  0.00000000E+00  0.00000000E+00  0.00000000E+00
  0.00000000E+00  0.00000000E+00  0.00000000E+00
  0.00000000E+00  0.00000000E+00  0.00000000E+00
  0.00000000E+00  0.00000000E+00  0.00000000E+00
  0.00000000E+00  0.00000000E+00  0.00000000E+00
  0.00000000E+00  0.00000000E+00  0.00000000E+00
  0.00000000E+00  0.00000000E+00  0.00000000E+00
  0.00000000E+00  0.00000000E+00  0.00000000E+00
  0.00000000E+00  0.00000000E+00  0.00000000E+00
  0.00000000E+00  0.00000000E+00  0.00000000E+00
  0.00000000E+00  0.00000000E+00  0.00000000E+00
  0.00000000E+00  0.00000000E+00  0.00000000E+00
  0.00000000E+00  0.00000000E+00  0.00000000E+00
  0.00000000E+00  0.00000000E+00  0.00000000E+00
  0.00000000E+00  0.00000000E+00  0.00000000E+00
  0.00000000E+00  0.00000000E+00  0.00000000E+00
  0.00000000E+00  0.00000000E+00  0.00000000E+00
  0.00000000E+00  0.00000000E+00  0.00000000E+00
  0.00000000E+00  0.00000000E+00  0.00000000E+00
  0.00000000E+00  0.00000000E+00  0.00000000E+00
  0.00000000E+00  0.00000000E+00  0.00000000E+00
  0.00000000E+00  0.00000000E+00  0.00000000E+00
  0.00000000E+00  0.00000000E+00  0.00000000E+00
  0.00000000E+00  0.00000000E+00  0.00000000E+00
  0.00000000E+00  0.00000000E+00  0.00000000E+00
  0.00000000E+00  0.00000000E+00  0.00000000E+00
  0.00000000E+00  0.00000000E+00  0.00000000E+00
  0.00000000E+00  0.00000000E+00  0.00000000E+00
  0.00000000E+00  0.00000000E+00  0.00000000E+00
