Autosave\of\661                         
   1.00000000000000     
    19.1044006348000011    0.0000000000000000    0.0000000000000000
    -9.5522003174000005   16.5448962737999992    0.0000000000000000
     0.0000000000000000    0.0000000000000000   18.1270999908000014
   Mo   S    Li
    36    73     1
Direct
 -0.0000127891038057  0.0016033789978720  0.4998536798333585
 -0.0000203793880056  0.1682727942085218  0.5000181446792996
 -0.0000926450428603  0.3348531071867268  0.4999221661608043
 -0.0001097162475593  0.5014547983523335  0.4998438450373900
 -0.0000398148861082  0.6681475670935940  0.4997675489613569
  0.0000962279602447  0.8349050951458331  0.4997145810590761
  0.1662736482162399  0.0012721712637380  0.4997394856410752
  0.1663441357203443  0.1680206934065541  0.5003893628298023
  0.1665036455942434  0.3348472525011498  0.5004942853592210
  0.1665780949421994  0.5015031970192259  0.5001357330005124
  0.1666142082037686  0.6681542149697898  0.4997418708107474
  0.1666438968083434  0.8348224553707166  0.4995911275732172
  0.3332684968403133  0.0016082133001392  0.4994883683367114
  0.3339087609456723  0.1685168512724883  0.4997421872042708
  0.3326971266560103  0.3343308423798761  0.5010744481920203
  0.3333308626553576  0.5015431365886337  0.5006413505130485
  0.3332940374367093  0.6682508076202184  0.4999877162722420
  0.3332966048025249  0.8349105830846183  0.4995215924694922
  0.5000627946356964  0.0013732187286824  0.4992346763282985
  0.4994781479266699  0.1685721268321046  0.4993361263868085
  0.4981896625466815  0.3316029458438179  0.5009061372991273
  0.5008472747835423  0.5031980188301185  0.5007359611848876
  0.4999458239069154  0.6684533821282567  0.5002418979619043
  0.4999778687501469  0.8350355518593625  0.4995434929213037
  0.6667053996366245  0.0016784174139479  0.4992746581917274
  0.6666232355593146  0.1680392162163463  0.4994644407385423
  0.6664914613214906  0.3343064830240752  0.5003569330660969
  0.6672438521936765  0.5031359636611787  0.5004667202854561
  0.6669310782582710  0.6688157688406082  0.5004162678831063
  0.6667710410665623  0.8351973343360574  0.4997420950580303
  0.8333875490052561  0.0017520172415251  0.4996222595043066
  0.8332698649735113  0.1682801060494207  0.4995396255790376
  0.8332815380197114  0.3348443345359917  0.4997622433013235
  0.8330990407032444  0.5014665657732379  0.5000363067088155
  0.8334966459760169  0.6683332919689019  0.5000032640438273
  0.8335440174740930  0.8351747505336407  0.4998597893845467
  0.1108572354695315  0.0567038016770862  0.5858905174499821
  0.1107784900360463  0.2236029888979455  0.5862566300577051
  0.1107861462361899  0.3904645778422768  0.5860652800803660
  0.1109601855733876  0.5571724122051783  0.5857596244577882
  0.1111640936377086  0.7238048218788770  0.5855610421564759
  0.1111321495330841  0.8902656968740910  0.5856350380512554
  0.2774525249565734  0.0567426824671435  0.5856430261613074
  0.2772055742915995  0.2229588701632564  0.5866166497461894
  0.2772596790680995  0.3902953702583912  0.5866104304114296
  0.2776165707952542  0.5573059195008442  0.5861142152626483
  0.2777319101560654  0.7239850576686847  0.5856190838416940
  0.2778610057563256  0.8906158477772633  0.5854065973562080
  0.4444688375520470  0.0568647237671158  0.5853016568292355
  0.4430979626668153  0.2210830559771486  0.5870446083653557
  0.4441078689930734  0.3914033833454652  0.5865868528096302
  0.4444343953269529  0.5578905172713863  0.5865706750631394
  0.4444631874923110  0.7242848597249498  0.5858061850980341
  0.4444376659450144  0.8905993153522510  0.5853620385102281
  0.6110439400697505  0.0569608795419213  0.5851676225913001
  0.6108530977373301  0.2229963004066746  0.5858380868666584
  0.6123303274552072  0.3912822923523084  0.5862260218549047
  0.6117316991575545  0.5582513503880101  0.5866032217591942
  0.6113244081179738  0.7245820129655328  0.5859944773009764
  0.6111946921748971  0.8908676294476494  0.5853568691901760
  0.7776020059418141  0.0571712516016607  0.5853505078131120
  0.7776102510815311  0.2236080451389126  0.5854636088208047
  0.7778417790383655  0.3901698825784390  0.5858573594715425
  0.7783700651733203  0.5576522519965434  0.5861699696833350
  0.7783358380137353  0.7243969383026074  0.5859344250866689
  0.7779061948211338  0.8908192603637087  0.5855832190581857
  0.9442799276884066  0.0570485959459838  0.5857317981676408
  0.9441169847419938  0.2236587594725986  0.5856954086079248
  0.9443026262294606  0.3903736670930302  0.5857138802161269
  0.9444033616677644  0.5570540927964966  0.5857222270237452
  0.9447023138384877  0.7239241910537845  0.5856946717505150
  0.9446529265125025  0.8905452003169021  0.5856932933705021
  0.1111777319505169  0.0573712047649348  0.4141138538858136
  0.1112893124252029  0.2239312686740648  0.4144373974374151
  0.1112135492697421  0.3903776865049949  0.4142988053129966
  0.1110705110238686  0.5569177849547300  0.4140134384359443
  0.1110101853014964  0.7235911904055424  0.4138031029722688
  0.1110684029326365  0.8903687350411597  0.4137163104928628
  0.2775935241241068  0.0572563557875690  0.4137935859428004
  0.2776697567611197  0.2240842631840361  0.4144421432658386
  0.2779092673598986  0.3902173292835728  0.4149156161404642
  0.2777843490648416  0.5568545812158170  0.4144354467199828
  0.2777323067568522  0.7235860002344360  0.4138642565701228
  0.2777124116304884  0.8904917839011225  0.4136417207666037
  0.4443215032070106  0.0572093121706649  0.4134751086490275
  0.4439727495801267  0.2234954369763265  0.4123377287781532
  0.4447236963672295  0.3903421343034092  0.4158126638541496
  0.4443577113521988  0.5571707823550809  0.4145671348611774
  0.4443458179920446  0.7236196738064335  0.4140478252489535
  0.4443045873844449  0.8902936118751662  0.4134584401756606
  0.6111282585063857  0.0572119570060367  0.4133497951404898
  0.6110661545134257  0.2240621703508101  0.4136877375486548
  0.6101581477480323  0.3903171218696878  0.4154747922131052
  0.6112111118691292  0.5576751890061067  0.4146130635410007
  0.6111015534833363  0.7238385987482506  0.4142677597241987
  0.6111259360727652  0.8904384217917721  0.4135889205952796
  0.7779248798672086  0.0572726015390727  0.4135237272973794
  0.7777869798257050  0.2239222957894253  0.4136292907055063
  0.7772302915031022  0.3902469891249051  0.4141534800494164
  0.7776064585401467  0.5571873750624157  0.4141636682998758
  0.7778071014901285  0.7239385467664821  0.4142276313401214
  0.7778945847719423  0.8905788197694393  0.4138497581448422
  0.9446235057533041  0.0573375673054853  0.4139500209259290
  0.9445892610810256  0.2238432865506304  0.4139374714055926
  0.9444528618973801  0.3904166929318211  0.4139172619617514
  0.9441746959675019  0.5569047553158549  0.4140381366553400
  0.9443906137428948  0.7237210881802598  0.4139157653637164
  0.9445690344482197  0.8905821753370916  0.4139038775583160
  0.4412542922229379  0.2172734403063119  0.6997196398137989
  0.5100982804131529  0.3552786138177335  0.6818064121025588
 
  0.00000000E+00  0.00000000E+00  0.00000000E+00
  0.00000000E+00  0.00000000E+00  0.00000000E+00
  0.00000000E+00  0.00000000E+00  0.00000000E+00
  0.00000000E+00  0.00000000E+00  0.00000000E+00
  0.00000000E+00  0.00000000E+00  0.00000000E+00
  0.00000000E+00  0.00000000E+00  0.00000000E+00
  0.00000000E+00  0.00000000E+00  0.00000000E+00
  0.00000000E+00  0.00000000E+00  0.00000000E+00
  0.00000000E+00  0.00000000E+00  0.00000000E+00
  0.00000000E+00  0.00000000E+00  0.00000000E+00
  0.00000000E+00  0.00000000E+00  0.00000000E+00
  0.00000000E+00  0.00000000E+00  0.00000000E+00
  0.00000000E+00  0.00000000E+00  0.00000000E+00
  0.00000000E+00  0.00000000E+00  0.00000000E+00
  0.00000000E+00  0.00000000E+00  0.00000000E+00
  0.00000000E+00  0.00000000E+00  0.00000000E+00
  0.00000000E+00  0.00000000E+00  0.00000000E+00
  0.00000000E+00  0.00000000E+00  0.00000000E+00
  0.00000000E+00  0.00000000E+00  0.00000000E+00
  0.00000000E+00  0.00000000E+00  0.00000000E+00
  0.00000000E+00  0.00000000E+00  0.00000000E+00
  0.00000000E+00  0.00000000E+00  0.00000000E+00
  0.00000000E+00  0.00000000E+00  0.00000000E+00
  0.00000000E+00  0.00000000E+00  0.00000000E+00
  0.00000000E+00  0.00000000E+00  0.00000000E+00
  0.00000000E+00  0.00000000E+00  0.00000000E+00
  0.00000000E+00  0.00000000E+00  0.00000000E+00
  0.00000000E+00  0.00000000E+00  0.00000000E+00
  0.00000000E+00  0.00000000E+00  0.00000000E+00
  0.00000000E+00  0.00000000E+00  0.00000000E+00
  0.00000000E+00  0.00000000E+00  0.00000000E+00
  0.00000000E+00  0.00000000E+00  0.00000000E+00
  0.00000000E+00  0.00000000E+00  0.00000000E+00
  0.00000000E+00  0.00000000E+00  0.00000000E+00
  0.00000000E+00  0.00000000E+00  0.00000000E+00
  0.00000000E+00  0.00000000E+00  0.00000000E+00
  0.00000000E+00  0.00000000E+00  0.00000000E+00
  0.00000000E+00  0.00000000E+00  0.00000000E+00
  0.00000000E+00  0.00000000E+00  0.00000000E+00
  0.00000000E+00  0.00000000E+00  0.00000000E+00
  0.00000000E+00  0.00000000E+00  0.00000000E+00
  0.00000000E+00  0.00000000E+00  0.00000000E+00
  0.00000000E+00  0.00000000E+00  0.00000000E+00
  0.00000000E+00  0.00000000E+00  0.00000000E+00
  0.00000000E+00  0.00000000E+00  0.00000000E+00
  0.00000000E+00  0.00000000E+00  0.00000000E+00
  0.00000000E+00  0.00000000E+00  0.00000000E+00
  0.00000000E+00  0.00000000E+00  0.00000000E+00
  0.00000000E+00  0.00000000E+00  0.00000000E+00
  0.00000000E+00  0.00000000E+00  0.00000000E+00
  0.00000000E+00  0.00000000E+00  0.00000000E+00
  0.00000000E+00  0.00000000E+00  0.00000000E+00
  0.00000000E+00  0.00000000E+00  0.00000000E+00
  0.00000000E+00  0.00000000E+00  0.00000000E+00
  0.00000000E+00  0.00000000E+00  0.00000000E+00
  0.00000000E+00  0.00000000E+00  0.00000000E+00
  0.00000000E+00  0.00000000E+00  0.00000000E+00
  0.00000000E+00  0.00000000E+00  0.00000000E+00
  0.00000000E+00  0.00000000E+00  0.00000000E+00
  0.00000000E+00  0.00000000E+00  0.00000000E+00
  0.00000000E+00  0.00000000E+00  0.00000000E+00
  0.00000000E+00  0.00000000E+00  0.00000000E+00
  0.00000000E+00  0.00000000E+00  0.00000000E+00
  0.00000000E+00  0.00000000E+00  0.00000000E+00
  0.00000000E+00  0.00000000E+00  0.00000000E+00
  0.00000000E+00  0.00000000E+00  0.00000000E+00
  0.00000000E+00  0.00000000E+00  0.00000000E+00
  0.00000000E+00  0.00000000E+00  0.00000000E+00
  0.00000000E+00  0.00000000E+00  0.00000000E+00
  0.00000000E+00  0.00000000E+00  0.00000000E+00
  0.00000000E+00  0.00000000E+00  0.00000000E+00
  0.00000000E+00  0.00000000E+00  0.00000000E+00
  0.00000000E+00  0.00000000E+00  0.00000000E+00
  0.00000000E+00  0.00000000E+00  0.00000000E+00
  0.00000000E+00  0.00000000E+00  0.00000000E+00
  0.00000000E+00  0.00000000E+00  0.00000000E+00
  0.00000000E+00  0.00000000E+00  0.00000000E+00
  0.00000000E+00  0.00000000E+00  0.00000000E+00
  0.00000000E+00  0.00000000E+00  0.00000000E+00
  0.00000000E+00  0.00000000E+00  0.00000000E+00
  0.00000000E+00  0.00000000E+00  0.00000000E+00
  0.00000000E+00  0.00000000E+00  0.00000000E+00
  0.00000000E+00  0.00000000E+00  0.00000000E+00
  0.00000000E+00  0.00000000E+00  0.00000000E+00
  0.00000000E+00  0.00000000E+00  0.00000000E+00
  0.00000000E+00  0.00000000E+00  0.00000000E+00
  0.00000000E+00  0.00000000E+00  0.00000000E+00
  0.00000000E+00  0.00000000E+00  0.00000000E+00
  0.00000000E+00  0.00000000E+00  0.00000000E+00
  0.00000000E+00  0.00000000E+00  0.00000000E+00
  0.00000000E+00  0.00000000E+00  0.00000000E+00
  0.00000000E+00  0.00000000E+00  0.00000000E+00
  0.00000000E+00  0.00000000E+00  0.00000000E+00
  0.00000000E+00  0.00000000E+00  0.00000000E+00
  0.00000000E+00  0.00000000E+00  0.00000000E+00
  0.00000000E+00  0.00000000E+00  0.00000000E+00
  0.00000000E+00  0.00000000E+00  0.00000000E+00
  0.00000000E+00  0.00000000E+00  0.00000000E+00
  0.00000000E+00  0.00000000E+00  0.00000000E+00
  0.00000000E+00  0.00000000E+00  0.00000000E+00
  0.00000000E+00  0.00000000E+00  0.00000000E+00
  0.00000000E+00  0.00000000E+00  0.00000000E+00
  0.00000000E+00  0.00000000E+00  0.00000000E+00
  0.00000000E+00  0.00000000E+00  0.00000000E+00
  0.00000000E+00  0.00000000E+00  0.00000000E+00
  0.00000000E+00  0.00000000E+00  0.00000000E+00
  0.00000000E+00  0.00000000E+00  0.00000000E+00
  0.00000000E+00  0.00000000E+00  0.00000000E+00
  0.00000000E+00  0.00000000E+00  0.00000000E+00
  0.00000000E+00  0.00000000E+00  0.00000000E+00
