PREC = Accurate      ! medium precision
EDIFF = 1e-5         ! electron relaxation criteria
EDIFFG = 1e-3        ! ion relaxation criteria
ENCUT = 500          ! Energy cutoff
ISIF = 2             ! internal coordinates relaxation
POTIM = 1
ICHARG = 2           ! superposition of atomic charge densities as initial density
ISYM = 0             ! memory conserving symmetry calculation
NSW = 0              ! maximum ion relaxation steps
ISMEAR = -5           ! Gaussian smearing
SIGMA = 0.1         ! width of smearing in eV
ALGO = Normal          ! mixed algorism with Davidson and RMM-DIIS
LWAVE = T            ! Save wave function
LCHARG = T           ! Save charge densities
LREAL = auto         ! Real space projection
LORBIT = 11
NEDOS = 5000
IVDW = 12
